Al4 
1.0
4.0369359481000000e+00 0.0000000000000000e+00 0.0000000000000000e+00 
8.0738719000000000e-02 4.0361284802000004e+00 0.0000000000000000e+00 
0.0000000000000000e+00 0.0000000000000000e+00 4.0369359481000000e+00 
Al 
4 
Cartesian
   2.0184679741    0.0000000000    2.0184679741
   0.0403693595    2.0180642401    2.0184679741
   2.0588373336    2.0180642401    0.0000000000
   0.0807387190    4.0361284802    0.0000000000
