Al4 
1.0
3.9685000841000000e+00 0.0000000000000000e+00 0.0000000000000000e+00 
-0.0000000000000000e+00 3.9685000841000000e+00 0.0000000000000000e+00 
-0.0000000000000000e+00 -0.0000000000000000e+00 3.9685000841000000e+00 
Al 
4 
Cartesian
   0.0000000000    0.0000000000    0.0000000000
   0.0000000000    1.9842500420    1.9842500420
   1.9842500420    1.9842500420    0.0000000000
   1.9842500420    0.0000000000    1.9842500420
