Al4 
1.0
3.9685000840897398e+00 0.0000000000000000e+00 0.0000000000000000e+00
-2.8352201035079196e-18 3.9685000840897398e+00 0.0000000000000000e+00
-3.1946142011356850e-19 -2.2894735108139082e-18 3.9685000840897398e+00
Al 
4 
Cartesian
0.0000000000000000e+00 0.0000000000000000e+00 0.0000000000000000e+00
-0.0000000000000000e+00 1.9842500420909590e+00 1.9842500420909590e+00
1.9842500420909590e+00 1.9842500420909590e+00 0.0000000000000000e+00
1.9842500420909590e+00 0.0000000000000000e+00 1.9842500420909590e+00
