Al4 
1.0
3.7596859219746634e+00 0.0000000000000000e+00 0.0000000000000000e+00
1.1475922258558720e-16 3.7596859219746634e+00 0.0000000000000000e+00
1.2240410293103752e-16 1.3597588634431815e-16 3.7596859219746634e+00
Al 
4 
Cartesian
0.0000000000000000e+00 0.0000000000000000e+00 0.0000000000000000e+00
0.0000000000000000e+00 1.8798429610043383e+00 1.8798429610043383e+00
1.8798429610043383e+00 1.8798429610043383e+00 0.0000000000000000e+00
1.8798429610043383e+00 0.0000000000000000e+00 1.8798429610043383e+00
