Al
1.0
10.0 0.0 0.0
0.0 10.0 0.0
0.0 0.0 10.0
1
Cartesian
0.0 0.0 0.0