Al16 
1.0
2.8637816768000000e+00 0.0000000000000000e+00 0.0000000000000000e+00 
-0.0000000000000000e+00 8.5913450302999994e+00 0.0000000000000000e+00 
1.0000000000000000e-02 0.0000000000000000e+00 2.4299993321799999e+01 
Al 
16 
Cartesian
   2.5067811892    0.8352694648    2.3624988107
   1.0740570178    2.2671614487    0.3375001772
   1.0751681288    3.2217543864    3.0374991652
   2.5078922972    1.7898606842    5.0624905087
   1.0762792388    4.1763473240    5.7374957232
   2.5090034072    2.7444536219    7.7624870667
   1.0768347988    0.3579729960    7.0875061522
   1.0779459088    1.3125685110    9.7875027102
   2.5101145272    3.6990551509   10.4625079247
   2.5062256342    4.6536480885    1.0125005317
   1.0746125728    7.0401261370    1.6874984562
   2.5073367472    5.6082410262    3.7125043797
   1.0757236888    7.9947276660    4.3875095942
   2.5084478572    6.5628339639    6.4125009377
   2.5095589672    7.5174269015    9.1124974957
   1.0773903488    5.1309402617    8.4374922812
