Al16
1.0
   2.8637816767697615    0.0000000000000000    0.0000000000000002
  -0.0000000000000005    8.5913450303092844    0.0000000000000005
0.01 0.0 24.29999332178016
Al
16
Direct
   0.8749999999920838    0.0972222222218453    0.0972222222218452 Al
   0.8749999999920838    0.5416666666662897    0.0416666666662897 Al
   0.3749999999920839    0.8194444444420570    0.0694444444443188 Al
   0.3749999999920839    0.2638888888865014    0.0138888888887632 Al
   0.8749999999920839    0.2083333333329564    0.2083333333329564 Al
   0.8749999999920837    0.6527777777774008    0.1527777777774008 Al
   0.3749999999920839    0.9305555555531682    0.1805555555554299 Al
   0.3749999999920838    0.3749999999976125    0.1249999999998743 Al
   0.8749999999920841    0.3194444444440675    0.3194444444440675 Al
   0.8749999999920837    0.7638888888885119    0.2638888888885119 Al
   0.3749999999920837    0.0416666666642792    0.2916666666665410 Al
   0.3749999999920839    0.4861111111087236    0.2361111111109855 Al
   0.8749999999920832    0.4305555555551785    0.4305555555551785 Al
   0.8749999999920837    0.8749999999996230    0.3749999999996230 Al
   0.3749999999920837    0.1527777777753904    0.4027777777776521 Al
   0.3749999999920832    0.5972222222198347    0.3472222222220965 Al
