Al4 
1.0
3.9914763580999999e+00 0.0000000000000000e+00 0.0000000000000000e+00 
0.0000000000000000e+00 4.0319999997000000e+00 0.0000000000000000e+00 
0.0000000000000000e+00 0.0000000000000000e+00 4.0319999997000000e+00 
Al 
4 
Cartesian
   3.9914763581    2.0159999999    2.0159999999
   1.9957381790    2.0159999999    4.0319999997
   1.9957381790    4.0319999997    2.0159999999
   3.9914763581    4.0319999997    4.0319999997
