Al4 
1.0
3.6677997215999998e+00 0.0000000000000000e+00 0.0000000000000000e+00 
-0.0000000000000000e+00 3.6677997215999998e+00 0.0000000000000000e+00 
-0.0000000000000000e+00 -0.0000000000000000e+00 3.6677997215999998e+00 
Al 
4 
Cartesian
   0.0000000001    0.0000000001    0.0000000001
   1.8338998608    0.0000000001    1.8338998608
   1.8338998608    1.8338998608    0.0000000001
   0.0000000001    1.8338998608    1.8338998608
