Al4 
1.0
4.4760970407094582e+00 0.0000000000000000e+00 0.0000000000000000e+00
1.3662668299156042e-16 4.4760970407094582e+00 0.0000000000000000e+00
1.4572830131846456e-16 1.6188619876895921e-16 4.4760970407094582e+00
Al 
4 
Cartesian
0.0000000000000000e+00 0.0000000000000000e+00 0.0000000000000000e+00
0.0000000000000000e+00 2.2380485203749765e+00 2.2380485203749765e+00
2.2380485203749765e+00 2.2380485203749765e+00 0.0000000000000000e+00
2.2380485203749765e+00 0.0000000000000000e+00 2.2380485203749765e+00
