Al4 
1.0
4.4201399616000003e+00 0.0000000000000000e+00 0.0000000000000000e+00 
0.0000000000000000e+00 4.4201399616000003e+00 0.0000000000000000e+00 
0.0000000000000000e+00 0.0000000000000000e+00 4.4201399616000003e+00 
Al 
4 
Cartesian
   0.0000000000    0.0000000000    0.0000000000
   0.0000000000    2.2100699808    2.2100699808
   2.2100699808    2.2100699808    0.0000000000
   2.2100699808    0.0000000000    2.2100699808
