Al4 
1.0
4.4201399616372115e+00 0.0000000000000000e+00 0.0000000000000000e+00
1.3491867040067929e-16 4.4201399616372115e+00 0.0000000000000000e+00
1.4390650657054529e-16 1.5986240912748526e-16 4.4201399616372115e+00
Al 
4 
Cartesian
0.0000000000000000e+00 0.0000000000000000e+00 0.0000000000000000e+00
0.0000000000000000e+00 2.2100699808386000e+00 2.2100699808386000e+00
2.2100699808386000e+00 2.2100699808386000e+00 0.0000000000000000e+00
2.2100699808386000e+00 0.0000000000000000e+00 2.2100699808386000e+00
