Al4
1.0
   4.0499988869633601    0.0000000000000000    0.0000000000000000
   0.0000000000000001    4.0499988869633601    0.0000000000000000
   0.0000000000000001   -0.0404999888696335    4.0497963819562601
Al
4
direct
   0.0000000000000000    0.0000000000000000    0.0000000000000000 Al
  -0.0000000000000000    0.5000000000045235    0.5000000000045235 Al
   0.5000000000045235    0.5000000000045235    0.0000000000000000 Al
   0.5000000000045235   -0.0000000000000000    0.5000000000045235 Al
