Al6 
1.0
2.8545447840999998e+00 0.0000000000000000e+00 0.0000000000000000e+00 
-0.0000000000000000e+00 2.8545447840999998e+00 0.0000000000000000e+00 
1.0000000000000000e-02 0.0000000000000000e+00 2.4221615688600000e+01 
Al 
6 
Cartesian
   0.0054166700    0.0000000000   13.1200499052
   1.4335223920    1.4272723920   15.1385098054
   2.8616281141    0.0000000000   17.1569697056
   1.4351890620    1.4272723920   19.1754538273
   2.8632947841    0.0000000000   21.1939137275
   1.4368557220    1.4272723920   23.2123736277
