Al6
1.0
   2.8545447841216616    0.0000000000000000    0.0000000000000002
  -0.0000000000000002    2.8545447841216616    0.0000000000000002
0.01 0.0 24.221615688637392
Al
6
Direct
   0.9999999999883863    1.0000000000000000    0.8750000000009678 Al
   0.4999999999883863    0.4999999999999999    0.9583333333323656 Al
   0.9999999999883863    1.0000000000000000    0.7083333333343012 Al
   0.4999999999883863    0.4999999999999999    0.7916666666656988 Al
   0.9999999999883863    1.0000000000000000    0.5416666666676345 Al
   0.4999999999883863    0.4999999999999999    0.6249999999990322 Al
