Automatic kpoint scheme
0
Monkhorst
22 22 22
