Al4 
1.0
3.8240611991950191e+00 0.0000000000000000e+00 0.0000000000000000e+00
-2.7320284639704569e-18 3.8240611991950191e+00 0.0000000000000000e+00
-3.0783419312343187e-19 -2.2061450507179289e-18 3.8240611991950191e+00
Al 
4 
Cartesian
0.0000000000000000e+00 0.0000000000000000e+00 0.0000000000000000e+00
-0.0000000000000000e+00 1.9120305996419211e+00 1.9120305996419211e+00
1.9120305996419211e+00 1.9120305996419211e+00 0.0000000000000000e+00
1.9120305996419211e+00 0.0000000000000000e+00 1.9120305996419211e+00
