Al4 
1.0
4.2898845784964168e+00 0.0000000000000000e+00 0.0000000000000000e+00
-3.0648271994358362e-18 4.2898845784964168e+00 0.0000000000000000e+00
-3.4533264218995350e-19 -2.4748839356946670e-18 4.2898845784964168e+00
Al 
4 
Cartesian
0.0000000000000000e+00 0.0000000000000000e+00 0.0000000000000000e+00
-0.0000000000000000e+00 2.1449422892980299e+00 2.1449422892980299e+00
2.1449422892980299e+00 2.1449422892980299e+00 0.0000000000000000e+00
2.1449422892980299e+00 0.0000000000000000e+00 2.1449422892980299e+00
