Al4 
1.0
3.4159013557006244e+00 0.0000000000000000e+00 0.0000000000000000e+00
1.0426567328883884e-16 3.4159013557006244e+00 0.0000000000000000e+00
1.1121150804156656e-16 1.2354229160243151e-16 3.4159013557006244e+00
Al 
4 
Cartesian
0.0000000000000000e+00 0.0000000000000000e+00 0.0000000000000000e+00
0.0000000000000000e+00 1.7079506778657640e+00 1.7079506778657640e+00
1.7079506778657640e+00 1.7079506778657640e+00 0.0000000000000000e+00
1.7079506778657640e+00 0.0000000000000000e+00 1.7079506778657640e+00
