Al4 
1.0
4.4058831631000004e+00 0.0000000000000000e+00 0.0000000000000000e+00 
-0.0000000000000000e+00 4.4058831631000004e+00 0.0000000000000000e+00 
-0.0000000000000000e+00 -0.0000000000000000e+00 4.4058831631000004e+00 
Al 
4 
Cartesian
   0.0000000000    0.0000000000    0.0000000000
   2.2029415816    0.0000000000    2.2029415816
   2.2029415816    2.2029415816    0.0000000000
   0.0000000000    2.2029415816    2.2029415816
