Al4 
1.0
4.4058831631366804e+00 0.0000000000000000e+00 0.0000000000000000e+00
-3.1477002023794597e-18 4.4058831631366804e+00 0.0000000000000000e+00
-3.5467044533853080e-19 -2.5418048582594714e-18 4.4058831631366804e+00
Al 
4 
Cartesian
0.0000000000000000e+00 0.0000000000000000e+00 0.0000000000000000e+00
-0.0000000000000000e+00 2.2029415816195086e+00 2.2029415816195086e+00
2.2029415816195086e+00 2.2029415816195086e+00 0.0000000000000000e+00
2.2029415816195086e+00 0.0000000000000000e+00 2.2029415816195086e+00
