Al4 
1.0
4.2294556197000004e+00 0.0000000000000000e+00 0.0000000000000000e+00 
-0.0000000000000000e+00 4.2294556197000004e+00 0.0000000000000000e+00 
-0.0000000000000000e+00 -0.0000000000000000e+00 4.2294556197000004e+00 
Al 
4 
Cartesian
   0.0000000000    0.0000000000    0.0000000000
   2.1147278099    0.0000000000    2.1147278099
   2.1147278099    2.1147278099    0.0000000000
   0.0000000000    2.1147278099    2.1147278099
