Al4 
1.0
3.6765654545212287e+00 -0.0000000000000000e+00 0.0000000000000000e+00 
-0.0000000000000000e+00 3.6765654545212287e+00 -0.0000000000000000e+00 
0.0000000000000000e+00 -0.0000000000000000e+00 3.6765654545212287e+00 
Al 
4 
Cartesian
   0.0000000000    0.0000000000    0.0000000000
   0.0000000000    1.8382827273    1.8382827273
   1.8382827273    0.0000000000    1.8382827273
   1.8382827273    1.8382827273    0.0000000000
