Al6 
1.0
2.8510545414999999e+00 0.0000000000000000e+00 0.0000000000000000e+00 
-0.0000000000000000e+00 2.8510545414999999e+00 0.0000000000000000e+00 
1.0000000000000000e-02 0.0000000000000000e+00 2.4191999997900002e+01 
Al 
6 
Cartesian
   0.0054166700    0.0000000000   13.1040080629
   1.4317772708    1.4255272707   15.1199999987
   0.0070833301    0.0000000000   17.1359919345
   1.4334439407    1.4255272707   19.1520080623
   2.8598045415    0.0000000000   21.1679999982
   1.4351106007    1.4255272707   23.1839919340
