Al6
1.0
   2.8510545414982351    0.0000000000000000    0.0000000000000002
  -0.0000000000000002    2.8510545414982351    0.0000000000000002
   0.0000000000000000    0.0000000000000000   24.1919999979132641
Al
6
direct
   0.0000000000064745    0.0000000000000000    0.8749999999994604 Al
   0.5000000000064746    0.5000000000000000    0.9583333333338728 Al
   0.0000000000064745    0.0000000000000000    0.7083333333327937 Al
   0.5000000000064746    0.5000000000000000    0.7916666666672062 Al
   0.0000000000064745    0.0000000000000000    0.5416666666661272 Al
   0.5000000000064746    0.5000000000000000    0.6250000000005396 Al
