Al8 
1.0
2.8545447840999998e+00 0.0000000000000000e+00 0.0000000000000000e+00 
-0.0000000000000000e+00 4.0369359481000000e+00 0.0000000000000000e+00 
1.0000000000000000e-02 0.0000000000000000e+00 2.2836358272999998e+01 
Al 
8 
Cartesian
   2.1418460881    0.0000000000    2.1409085881
   0.7139486960    2.0184679741    0.7136361960
   2.1430960881    0.0000000000    4.9954533722
   0.7151986960    2.0184679741    3.5681809802
   0.7164486960    2.0184679741    6.4227257643
   2.1443460881    0.0000000000    7.8499981563
   0.7176986960    2.0184679741    9.2772705484
   2.1455960881    0.0000000000   10.7045429405
