Al8
1.0
   2.8545447841216616    0.0000000000000000    0.0000000000000002
  -0.0000000000000002    4.0369359481062324    0.0000000000000002
0.01 0.0 22.836358272973293
Al
8
Direct
   0.7500000000174208    0.0000000000000000    0.0937500000007259 Al
   0.2500000000174206    0.4999999999883863    0.0312500000007259 Al
   0.7500000000174207    0.0000000000000000    0.2187500000007259 Al
   0.2500000000174205    0.4999999999883863    0.1562500000007259 Al
   0.7500000000174207    0.0000000000000000    0.3437500000007259 Al
   0.2500000000174205    0.4999999999883863    0.2812500000007259 Al
   0.7500000000174207    0.0000000000000000    0.4687500000007259 Al
   0.2500000000174207    0.4999999999883863    0.4062500000007259 Al
