Al4 
1.0
4.0499988870000001e+00 0.0000000000000000e+00 0.0000000000000000e+00 
0.0000000000000000e+00 4.0499988870000001e+00 0.0000000000000000e+00 
0.0000000000000000e+00 8.0999977700000003e-02 4.0491888062000001e+00 
Al 
4 
Cartesian
   0.0000000000    0.0000000000    0.0000000000
   0.0000000000    2.0654994324    2.0245944031
   2.0249994435    0.0404999889    2.0245944031
   2.0249994435    2.0249994435    0.0000000000
