Al4 
1.0
3.6677997216240863e+00 0.0000000000000000e+00 0.0000000000000000e+00
-2.6203903958778920e-18 3.6677997216240863e+00 0.0000000000000000e+00
-2.9525525587356538e-19 -2.1159960004272188e-18 3.6677997216240863e+00
Al 
4 
Cartesian
0.0000000000000000e+00 0.0000000000000000e+00 0.0000000000000000e+00
-0.0000000000000000e+00 1.8338998608546400e+00 1.8338998608546400e+00
1.8338998608546400e+00 1.8338998608546400e+00 0.0000000000000000e+00
1.8338998608546400e+00 0.0000000000000000e+00 1.8338998608546400e+00
