Al4
1.0
   4.0369359481062324    0.0000000000000000    0.0000000000000000
  -0.0807387189621246    4.0361284801617403    0.0000000000000000
  -0.0000000000000000   -0.0000000000000000    4.0369359481062324
Al
4
direct
   0.0000000000000000    0.0000000000000000    0.0000000000000000 Al
   0.0000000000000000    0.5000000000116137    0.5000000000116137 Al
   0.5000000000116137    0.5000000000116137    0.0000000000000000 Al
   0.5000000000116137    0.0000000000000000    0.5000000000116137 Al
