Automatic kpoint scheme
0
Monkhorst
21 21 21
