Al4 
1.0
3.4048836464000001e+00 0.0000000000000000e+00 0.0000000000000000e+00 
-0.0000000000000000e+00 3.4048836464000001e+00 0.0000000000000000e+00 
-0.0000000000000000e+00 -0.0000000000000000e+00 3.4048836464000001e+00 
Al 
4 
Cartesian
   0.0000000000    0.0000000000    0.0000000000
   1.7024418232    0.0000000000    1.7024418232
   1.7024418232    1.7024418232    0.0000000000
   0.0000000000    1.7024418232    1.7024418232
