Al4 
1.0
3.4048836463636833e+00 0.0000000000000000e+00 0.0000000000000000e+00
-2.4325549602425984e-18 3.4048836463636833e+00 0.0000000000000000e+00
-2.7409069974564496e-19 -1.9643166815104560e-18 3.4048836463636833e+00
Al 
4 
Cartesian
0.0000000000000000e+00 0.0000000000000000e+00 0.0000000000000000e+00
-0.0000000000000000e+00 1.7024418232213852e+00 1.7024418232213852e+00
1.7024418232213852e+00 1.7024418232213852e+00 0.0000000000000000e+00
1.7024418232213852e+00 0.0000000000000000e+00 1.7024418232213852e+00
