Al4 
1.0
4.2846393505747065e+00 0.0000000000000000e+00 0.0000000000000000e+00
1.5391086931171535e-18 4.2846393505747065e+00 0.0000000000000000e+00
-5.5443531402736185e-18 -8.5056388431241035e-18 4.2846393505747065e+00
Al 
4 
Cartesian
-0.0000000000000000e+00 0.0000000000000000e+00 0.0000000000000000e+00
-0.0000000000000000e+00 2.1423196752596123e+00 2.1423196752596123e+00
2.1423196752596123e+00 2.1423196752596123e+00 0.0000000000000000e+00
2.1423196752596123e+00 -0.0000000000000000e+00 2.1423196752596123e+00
