Automatic kpoint scheme
0
Monkhorst
19 19 19
