Al4 
1.0
4.0499988869633601e+00 0.0000000000000000e+00 0.0000000000000000e+00
1.2362062506973975e-16 4.0499988869633601e+00 0.0000000000000000e+00
1.3185582277843031e-16 1.4647558327401585e-16 4.0499988869633601e+00
Al 
4 
Cartesian
0.0000000000000000e+00 0.0000000000000000e+00 0.0000000000000000e+00
0.0000000000000000e+00 2.0249994435000001e+00 2.0249994435000001e+00
2.0249994435000001e+00 2.0249994435000001e+00 0.0000000000000000e+00
2.0249994435000001e+00 0.0000000000000000e+00 2.0249994435000001e+00
