Al4 
1.0
4.1031269903999998e+00 0.0000000000000000e+00 0.0000000000000000e+00 
-0.0000000000000000e+00 4.1031269903999998e+00 0.0000000000000000e+00 
-0.0000000000000000e+00 -0.0000000000000000e+00 4.1031269903999998e+00 
Al 
4 
Cartesian
   0.0000000000    0.0000000000    0.0000000000
   2.0515634952    0.0000000000    2.0515634952
   2.0515634952    2.0515634952    0.0000000000
   0.0000000000    2.0515634952    2.0515634952
