Al4 
1.0
4.1031269903500913e+00 0.0000000000000000e+00 0.0000000000000000e+00
-2.9314017598048916e-18 4.1031269903500913e+00 0.0000000000000000e+00
-3.3029878983717100e-19 -2.3671413271663924e-18 4.1031269903500913e+00
Al 
4 
Cartesian
0.0000000000000000e+00 0.0000000000000000e+00 0.0000000000000000e+00
-0.0000000000000000e+00 2.0515634952226982e+00 2.0515634952226982e+00
2.0515634952226982e+00 2.0515634952226982e+00 0.0000000000000000e+00
2.0515634952226982e+00 0.0000000000000000e+00 2.0515634952226982e+00
