Al4 
1.0
4.0319999996522107e+00 0.0000000000000000e+00 0.0000000000000000e+00 
1.4483567325872354e-18 4.0319999996522107e+00 0.0000000000000000e+00 
-5.2174360618371453e-18 -8.0041126000297303e-18 4.0319999996522107e+00 
Al 
4 
Cartesian
  -0.0000000000    0.0000000000    0.0000000000
  -0.0000000000    2.0159999998    2.0159999998
   2.0159999998    2.0159999998    0.0000000000
   2.0159999998   -0.0000000000    2.0159999998
