Al4 
1.0
4.2395636629106823e+00 -0.0000000000000000e+00 0.0000000000000000e+00 
-0.0000000000000000e+00 4.2395636629106823e+00 -0.0000000000000000e+00 
0.0000000000000000e+00 -0.0000000000000000e+00 4.2395636629106823e+00 
Al 
4 
Cartesian
   0.0000000000    0.0000000000    0.0000000000
   0.0000000000    2.1197818315    2.1197818315
   2.1197818315    0.0000000000    2.1197818315
   2.1197818315    2.1197818315    0.0000000000
