ATOMIC_SPECIES
Al 26.9815385 pp_orb/Al_ONCV_PBE-1.0.upf upf201

LATTICE_CONSTANT
1.9798461885568444

LATTICE_VECTORS
    4.0465841524    -0.0000000000     0.0000000000 #latvec1
   -0.0000000000     4.0465841524    -0.0000000000 #latvec2
    0.0000000000    -0.0000000000     4.0465841524 #latvec3

ATOMIC_POSITIONS
Direct

Al #label
0 #magnetism
4 #number of atoms
0.0000000000 0.0000000000 0.0000000000 1 1 1
0.0000000000 0.5000000000 0.5000000000 1 1 1
0.5000000000 0.0000000000 0.5000000000 1 1 1
0.5000000000 0.5000000000 0.0000000000 1 1 1
