Al4 
1.0
4.1129331188033831e+00 -0.0000000000000000e+00 0.0000000000000000e+00 
-0.0000000000000000e+00 4.1129331188033831e+00 -0.0000000000000000e+00 
0.0000000000000000e+00 -0.0000000000000000e+00 4.1129331188033831e+00 
Al 
4 
Cartesian
   0.0000000000    0.0000000000    0.0000000000
   0.0000000000    2.0564665594    2.0564665594
   2.0564665594    0.0000000000    2.0564665594
   2.0564665594    2.0564665594    0.0000000000
