Al6 
1.0
2.8637816768000000e+00 0.0000000000000000e+00 0.0000000000000000e+00 
-0.0000000000000000e+00 2.8637816768000000e+00 0.0000000000000000e+00 
1.0000000000000000e-02 0.0000000000000000e+00 2.4299993321799999e+01 
Al 
6 
Cartesian
   2.8691983468    0.0000000000   13.1625044826
   1.4381408384    1.4318908384   15.1874958261
   2.8708650068    0.0000000000   17.2124871696
   1.4398075084    1.4318908384   19.2375028131
   2.8725316768    0.0000000000   21.2624941566
   1.4414741684    1.4318908384   23.2874855001
