Al6
1.0
   2.8637816767697615    0.0000000000000000    0.0000000000000002
  -0.0000000000000002    2.8637816767697615    0.0000000000000002
0.01 0.0 24.29999332178016
Al
6
Direct
   0.9999999999954765    0.0000000000000000    0.8750000000003769 Al
   0.4999999999954764    0.5000000000000000    0.9583333333329563 Al
   0.9999999999954765    0.0000000000000000    0.7083333333337103 Al
   0.4999999999954764    0.5000000000000000    0.7916666666662897 Al
   0.9999999999954765    0.0000000000000000    0.5416666666670436 Al
   0.4999999999954764    0.5000000000000000    0.6249999999996231 Al
