Al4 
1.0
4.0369359481062324e+00 0.0000000000000000e+00 0.0000000000000000e+00 
-2.8841128169636631e-18 4.0369359481062324e+00 0.0000000000000000e+00 
-3.2497045824942692e-19 -2.3289549507875600e-18 4.0369359481062324e+00 
Al 
4 
Cartesian
   0.0000000000    0.0000000000    0.0000000000
  -0.0000000000    2.0184679741    2.0184679741
   2.0184679741    2.0184679741    0.0000000000
   2.0184679741    0.0000000000    2.0184679741
