Al4 
1.0
3.5929780253567478e+00 -0.0000000000000000e+00 0.0000000000000000e+00 
-0.0000000000000000e+00 3.5929780253567478e+00 -0.0000000000000000e+00 
0.0000000000000000e+00 -0.0000000000000000e+00 3.5929780253567478e+00 
Al 
4 
Cartesian
   0.0000000000    0.0000000000    0.0000000000
   0.0000000000    1.7964890127    1.7964890127
   1.7964890127    0.0000000000    1.7964890127
   1.7964890127    1.7964890127    0.0000000000
