Al4 
1.0
3.4926760724000001e+00 0.0000000000000000e+00 0.0000000000000000e+00 
0.0000000000000000e+00 3.4926760724000001e+00 0.0000000000000000e+00 
-0.0000000000000000e+00 -0.0000000000000000e+00 3.4926760724000001e+00 
Al 
4 
Cartesian
   0.0000000000    0.0000000000    0.0000000000
   1.7463380362    0.0000000000    1.7463380362
   1.7463380362    1.7463380362    0.0000000000
   0.0000000000    1.7463380362    1.7463380362
