Al4 
1.0
3.4926760724332513e+00 0.0000000000000000e+00 0.0000000000000000e+00
1.2546232402508400e-18 3.4926760724332513e+00 0.0000000000000000e+00
-4.5195471463791721e-18 -6.9334753376976008e-18 3.4926760724332513e+00
Al 
4 
Cartesian
-0.0000000000000000e+00 0.0000000000000000e+00 0.0000000000000000e+00
-0.0000000000000000e+00 1.7463380361940122e+00 1.7463380361940122e+00
1.7463380361940122e+00 1.7463380361940122e+00 0.0000000000000000e+00
1.7463380361940122e+00 -0.0000000000000000e+00 1.7463380361940122e+00
