Al8                                     
   1.00000000000000     
     2.8559545747850481    0.0000000000000000    0.0000000000000002
    -0.0000000000000002    4.0389296931825003    0.0000000000000002
     0.0100000000000000    0.0000000000000000   22.8476365982803848
   Al
     8
Direct
  0.7500000000000000  0.0000000000000000  0.0937500000000000
  0.2500000000000000  0.5000000000000000  0.0312500000000000
  0.7500000000000000  0.0000000000000000  0.2187500000000000
  0.2500000000000000  0.5000000000000000  0.1562500000000000
  0.7500000000000000  0.0000000000000000  0.3437500000000000
  0.2500000000000000  0.5000000000000000  0.2812500000000000
  0.7500000000000000  0.0000000000000000  0.4687500000000000
  0.2500000000000000  0.5000000000000000  0.4062500000000000
 
  0.00000000E+00  0.00000000E+00  0.00000000E+00
  0.00000000E+00  0.00000000E+00  0.00000000E+00
  0.00000000E+00  0.00000000E+00  0.00000000E+00
  0.00000000E+00  0.00000000E+00  0.00000000E+00
  0.00000000E+00  0.00000000E+00  0.00000000E+00
  0.00000000E+00  0.00000000E+00  0.00000000E+00
  0.00000000E+00  0.00000000E+00  0.00000000E+00
  0.00000000E+00  0.00000000E+00  0.00000000E+00
