Automatic kpoint scheme
0
Monkhorst
28 20 4
