Al8
1.0
   2.8559545747850481    0.0000000000000000    0.0000000000000002
  -0.0000000000000002    4.0389296931825003    0.0000000000000002
   0.0000000000000000    0.0000000000000000   22.8476365982803848
Al
8
direct
   0.7500000000000001    1.0000000000000000    0.0937500000000000 Al
   0.2500000000000000    0.5000000000000000    0.0312500000000000 Al
   0.7500000000000002    1.0000000000000000    0.2187500000000000 Al
   0.2500000000000000    0.5000000000000001    0.1562500000000000 Al
   0.7500000000000000    1.0000000000000000    0.3437500000000000 Al
   0.2500000000000004    0.5000000000000000    0.2812500000000001 Al
   0.7500000000000000    1.0000000000000000    0.4687500000000000 Al
   0.2500000000000000    0.4999999999999999    0.4062500000000000 Al
