Al4 
1.0
3.8332003838628079e+00 -0.0000000000000000e+00 0.0000000000000000e+00 
-0.0000000000000000e+00 3.8332003838628079e+00 -0.0000000000000000e+00 
0.0000000000000000e+00 -0.0000000000000000e+00 3.8332003838628079e+00 
Al 
4 
Cartesian
   0.0000000000    0.0000000000    0.0000000000
   0.0000000000    1.9166001919    1.9166001919
   1.9166001919    0.0000000000    1.9166001919
   1.9166001919    1.9166001919    0.0000000000
