Al4 
1.0
4.0319999997000000e+00 0.0000000000000000e+00 0.0000000000000000e+00 
0.0000000000000000e+00 4.0319999997000000e+00 0.0000000000000000e+00 
-4.0320000000000002e-02 0.0000000000000000e+00 4.0317983946000000e+00 
Al 
4 
Cartesian
   2.0159999998    2.0159999999    0.0000000000
   1.9958399999    4.0319999997    2.0158991973
   4.0118399997    2.0159999999    2.0158991973
   3.9916799997    4.0319999997    4.0317983946
