Al4 
1.0
4.2242842779999998e+00 0.0000000000000000e+00 0.0000000000000000e+00 
0.0000000000000000e+00 4.2242842779999998e+00 0.0000000000000000e+00 
-0.0000000000000000e+00 -0.0000000000000000e+00 4.2242842779999998e+00 
Al 
4 
Cartesian
   0.0000000000    0.0000000000    0.0000000000
   2.1121421390    0.0000000000    2.1121421390
   2.1121421390    2.1121421390    0.0000000000
   0.0000000000    2.1121421390    2.1121421390
