Al4 
1.0
4.2242842780237062e+00 0.0000000000000000e+00 0.0000000000000000e+00
1.5174282179974677e-18 4.2242842780237062e+00 0.0000000000000000e+00
-5.4662532563277977e-18 -8.3858251534606993e-18 4.2242842780237062e+00
Al 
4 
Cartesian
-0.0000000000000000e+00 0.0000000000000000e+00 0.0000000000000000e+00
-0.0000000000000000e+00 2.1121421389845030e+00 2.1121421389845030e+00
2.1121421389845030e+00 2.1121421389845030e+00 0.0000000000000000e+00
2.1121421389845030e+00 -0.0000000000000000e+00 2.1121421389845030e+00
