Al12 
1.0
4.0499988869999992e+00 0.0000000000000000e+00 0.0000000000000000e+00 
2.0249994435000001e+00 4.5280364100000003e+00 0.0000000000000000e+00 
2.0349677477000001e+00 9.0557888730000002e-01 2.5356208845699999e+01 
Al 
12 
Cartesian
   2.0315838191    0.6791862479   16.7532021713
   4.0558750941    1.5847969165   14.9420588858
   4.0569431281    2.4903993450   17.6587991702
   2.0326540807    1.5847927516   19.4699424556
   4.0594352042    1.5847849643   23.9978513816
   6.0837205967    2.4903951801   22.1866827400
   6.0812285206    3.3960095608   15.8476305286
   4.0580071022    3.3960053959   20.3755140983
   6.0822965546    4.3016119893   18.5643708129
   6.0833666137    5.2072189458   21.2811110973
   6.0847886307    3.3959976086   24.9034230243
   4.0590751362    4.3016078244   23.0922543827
