Al12
1.0
   4.0371620911632897    0.0000000000000000    0.3222006115427299
   2.0057238414696590    4.5251513913114945    0.3222006115427309
   0.0000000000000000    0.0000000000000000   25.4538483118756709
Al
12
direct
   0.4464285714258250    0.1607142857157396    0.9464285714280868 Al
   0.8749999999972535    0.3750000000014540    0.8749999999995153 Al
   0.7321428571381721    0.5535714285764367    0.9821428571426956 Al
   0.1607142857096006    0.7678571428621510    0.9107142857141242 Al
   0.3035714285686821    0.5892857142871684    0.8035714285709439 Al
   0.7321428571401107    0.8035714285728826    0.7321428571423725 Al
   0.5892857142810292    0.9821428571478653    0.8392857142855528 Al
   0.0178571428524578    0.1964285714335796    0.7678571428569814 Al
   0.1607142857115394    0.0178571428585967    0.6607142857138011 Al
   0.5892857142829679    0.2321428571443112    0.5892857142852297 Al
   0.4464285714238864    0.4107142857192939    0.6964285714284099 Al
   0.8749999999953151    0.6250000000050082    0.6249999999998386 Al
