Al4 
1.0
4.3590503495615200e+00 -0.0000000000000000e+00 0.0000000000000000e+00 
-0.0000000000000000e+00 4.3590503495615200e+00 -0.0000000000000000e+00 
0.0000000000000000e+00 -0.0000000000000000e+00 4.3590503495615200e+00 
Al 
4 
Cartesian
   0.0000000000    0.0000000000    0.0000000000
   0.0000000000    2.1795251748    2.1795251748
   2.1795251748    0.0000000000    2.1795251748
   2.1795251748    2.1795251748    0.0000000000
