Al12 
1.0
4.0369359480999991e+00 0.0000000000000000e+00 0.0000000000000000e+00 
2.0184679741000000e+00 4.5134316003999997e+00 0.0000000000000000e+00 
2.0284362783000001e+00 9.0265792540000001e-01 2.5274421911800001e+01 
Al 
12 
Cartesian
   2.0250523556    0.6769955280   16.6991643990
   4.0428121487    1.5796852302   14.8938629907
   4.0438801827    2.4823667027   17.6018403776
   2.0261226099    1.5796810625   19.4071417859
   4.0463722588    1.5796732839   23.9204458556
   6.0641261884    2.4823625349   22.1151191728
   6.0616341123    3.3850559536   15.7965136949
   4.0449441699    3.3850517858   20.3097924901
   6.0627021464    4.2877374260   18.5044910818
   6.0637721989    5.1904234119   21.2124684687
   6.0651942224    3.3850440073   24.8230965597
   4.0460122039    4.2877332583   23.0177698770
