Al12
1.0
   4.0241405563369623    0.0000000000000000    0.3211613799266769
   1.9992545439126315    4.5105558870672278    0.3211613799266779
   0.0000000000000000    0.0000000000000000   25.3717490142074844
Al
12
direct
   0.4464285714215202    0.1607142857180187    0.9464285714273271 Al
   0.8749999999929489    0.3750000000037330    0.8749999999987557 Al
   0.7321428571308286    0.5535714285842868    0.9821428571424423 Al
   0.1607142857022572    0.7678571428700011    0.9107142857138709 Al
   0.3035714285643774    0.5892857142894473    0.8035714285701843 Al
   0.7321428571358060    0.8035714285751616    0.7321428571416126 Al
   0.5892857142736858    0.9821428571557154    0.8392857142852994 Al
   0.0178571428451144    0.1964285714414298    0.7678571428567280 Al
   0.1607142857072345    0.0178571428608759    0.6607142857130412 Al
   0.5892857142786633    0.2321428571465900    0.5892857142844700 Al
   0.4464285714165430    0.4107142857271437    0.6964285714281566 Al
   0.8749999999879715    0.6250000000128582    0.6249999999995852 Al
