Al4 
1.0
4.1621534251999996e+00 0.0000000000000000e+00 0.0000000000000000e+00 
0.0000000000000000e+00 4.1621534251999996e+00 0.0000000000000000e+00 
-0.0000000000000000e+00 -0.0000000000000000e+00 4.1621534251999996e+00 
Al 
4 
Cartesian
   0.0000000000    0.0000000000    0.0000000000
   2.0810767126    0.0000000000    2.0810767126
   2.0810767126    2.0810767126    0.0000000000
   0.0000000000    2.0810767126    2.0810767126
