Al4 
1.0
4.1621534251610566e+00 0.0000000000000000e+00 0.0000000000000000e+00
1.4951098551371583e-18 4.1621534251610566e+00 0.0000000000000000e+00
-5.3858555002994622e-18 -8.2624862788844532e-18 4.1621534251610566e+00
Al 
4 
Cartesian
-0.0000000000000000e+00 0.0000000000000000e+00 0.0000000000000000e+00
-0.0000000000000000e+00 2.0810767125535805e+00 2.0810767125535805e+00
2.0810767125535805e+00 2.0810767125535805e+00 0.0000000000000000e+00
2.0810767125535805e+00 -0.0000000000000000e+00 2.0810767125535805e+00
