Al4 
1.0
4.0319999997000000e+00 0.0000000000000000e+00 0.0000000000000000e+00 
0.0000000000000000e+00 4.0319999997000000e+00 0.0000000000000000e+00 
4.0320000000000002e-02 0.0000000000000000e+00 4.0317983946000000e+00 
Al 
4 
Cartesian
   2.0563199998    2.0159999999    4.0317983946
   2.0361599999    4.0319999997    2.0158991973
   4.0521599997    2.0159999999    2.0158991973
   4.0319999997    4.0319999997    0.0000000000
