Al4 
1.0
4.2431415242000003e+00 0.0000000000000000e+00 0.0000000000000000e+00 
0.0000000000000000e+00 4.2431415242000003e+00 0.0000000000000000e+00 
0.0000000000000000e+00 0.0000000000000000e+00 4.2431415242000003e+00 
Al 
4 
Cartesian
   0.0000000000    0.0000000000    0.0000000000
   2.1215707621    0.0000000000    2.1215707621
   2.1215707621    2.1215707621    0.0000000000
   0.0000000000    2.1215707621    2.1215707621
