Al4 
1.0
4.2431415242283110e+00 0.0000000000000000e+00 0.0000000000000000e+00
1.2951603744211536e-16 4.2431415242283110e+00 0.0000000000000000e+00
1.3814396804981356e-16 1.5346093839091006e-16 4.2431415242283110e+00
Al 
4 
Cartesian
0.0000000000000000e+00 0.0000000000000000e+00 0.0000000000000000e+00
0.0000000000000000e+00 2.1215707621333495e+00 2.1215707621333495e+00
2.1215707621333495e+00 2.1215707621333495e+00 0.0000000000000000e+00
2.1215707621333495e+00 0.0000000000000000e+00 2.1215707621333495e+00
