ATOMIC_SPECIES
Al 26.9815385 pp_orb/Al_ONCV_PBE-1.0.upf

NUMERICAL_ORBITAL
pp_orb/Al_gga_9au_100Ry_4s4p1d.orb

LATTICE_CONSTANT
1.889726

LATTICE_VECTORS
4.0389300000      0.0000000000      0.0000000000      
0.0000000000      4.0389300000      0.0000000000      
0.0000000000      0.0000000000      4.0389300000      

ATOMIC_POSITIONS
Direct

Al
0.0000000000
4
0.0000000000 0.0000000000 0.0000000000 1 1 1
0.0000000000 0.5000000000 0.5000000000 1 1 1
0.5000000000 0.0000000000 0.5000000000 1 1 1
0.5000000000 0.5000000000 0.0000000000 1 1 1

