Al4 
1.0
3.8193855320000001e+00 0.0000000000000000e+00 0.0000000000000000e+00 
0.0000000000000000e+00 3.8193855320000001e+00 0.0000000000000000e+00 
-0.0000000000000000e+00 -0.0000000000000000e+00 3.8193855320000001e+00 
Al 
4 
Cartesian
   0.0000000000    0.0000000000    0.0000000000
   1.9096927660    0.0000000000    1.9096927660
   1.9096927660    1.9096927660    0.0000000000
   0.0000000000    1.9096927660    1.9096927660
