Al4 
1.0
3.8193855320041377e+00 0.0000000000000000e+00 0.0000000000000000e+00
1.3719823288942544e-18 3.8193855320041377e+00 0.0000000000000000e+00
-4.9423114609266671e-18 -7.5820416328676905e-18 3.8193855320041377e+00
Al 
4 
Cartesian
-0.0000000000000000e+00 0.0000000000000000e+00 0.0000000000000000e+00
-0.0000000000000000e+00 1.9096927659773402e+00 1.9096927659773402e+00
1.9096927659773402e+00 1.9096927659773402e+00 0.0000000000000000e+00
1.9096927659773402e+00 -0.0000000000000000e+00 1.9096927659773402e+00
