Al4
1.0
   4.0369359481062324    0.0000000000000000    0.0000000000000000
  -0.0403693594810623    4.0367340962624052    0.0000000000000000
  -0.0000000000000000   -0.0000000000000000    4.0369359481062324
Al
4
direct
   0.0000000000000000    0.0000000000000000    0.0000000000000000 Al
   0.0000000000000000    0.5000000000116137    0.5000000000116137 Al
   0.5000000000116137    0.5000000000116137    0.0000000000000000 Al
   0.5000000000116137    0.0000000000000000    0.5000000000116137 Al
