Al4 
1.0
4.0319999997000000e+00 0.0000000000000000e+00 0.0000000000000000e+00 
0.0000000000000000e+00 4.0319999997000000e+00 0.0000000000000000e+00 
-8.0640000000000003e-02 0.0000000000000000e+00 4.0311935190000003e+00 
Al 
4 
Cartesian
   2.0159999998    2.0159999999    0.0000000000
   1.9756799999    4.0319999997    2.0155967595
   3.9916799997    2.0159999999    2.0155967595
   3.9513599997    4.0319999997    4.0311935190
