Automatic kpoint scheme
0
Monkhorst
20 20 20
