Al4
1.0
   4.0319999996522107    0.0000000000000000    0.0000000000000000
   0.0000000000000000    3.9914763580975299    0.0000000000000000
  -0.0000000000000000   -0.0000000000000000    4.0319999996522107
Al
4
direct
   0.0000000000000000    0.0000000000000000    0.0000000000000000 Al
   0.0000000000000000    0.4999999999935255    0.4999999999935255 Al
   0.4999999999935255    0.4999999999935255    0.0000000000000000 Al
   0.4999999999935255    0.0000000000000000    0.4999999999935255 Al
