Al12 
1.0
4.0319999996999991e+00 0.0000000000000000e+00 0.0000000000000000e+00 
2.0159999998000000e+00 4.5079130423000002e+00 0.0000000000000000e+00 
2.0259683040000001e+00 9.0155421380000000e-01 2.5243517986200001e+01 
Al 
12 
Cartesian
   2.0225843836    0.6761677448   16.6787457427
   4.0378761978    1.5777537338   14.8756517400
   4.0389442318    2.4793314968   17.5803179876
   2.0236546352    1.5777495649   19.3834119903
   4.0414363078    1.5777417897   23.8911974842
   6.0567222657    2.4793273279   22.0880782379
   6.0542301896    3.3809170351   15.7771987414
   4.0400082238    3.3809128662   20.2849589917
   6.0552982236    4.2824947981   18.4818649890
   6.0563682736    5.1840770690   21.1865312366
   6.0577902997    3.3809050909   24.7927444855
   4.0410762578    4.2824906292   22.9896252393
