Al12
1.0
   4.0192202527668419    0.0000000000000000    0.3207686969519856
   1.9968100618841629    4.5050408450542410    0.3207686969519866
   0.0000000000000000    0.0000000000000000   25.3407270592068699
Al
12
direct
   0.4464285714325025    0.1607142857122046    0.9464285714292651 Al
   0.8750000000039310    0.3749999999979189    0.8750000000006937 Al
   0.7321428571495631    0.5535714285642603    0.9821428571430884 Al
   0.1607142857209915    0.7678571428499747    0.9107142857145170 Al
   0.3035714285753596    0.5892857142836332    0.8035714285721223 Al
   0.7321428571467881    0.8035714285693475    0.7321428571435509 Al
   0.5892857142924202    0.9821428571356887    0.8392857142859456 Al
   0.0178571428638486    0.1964285714214033    0.7678571428573742 Al
   0.1607142857182167    0.0178571428550617    0.6607142857149795 Al
   0.5892857142896452    0.2321428571407760    0.5892857142864081 Al
   0.4464285714352773    0.4107142857071175    0.6964285714288027 Al
   0.8750000000067057    0.6249999999928318    0.6250000000002313 Al
