Al4 
1.0
3.7565157154771920e+00 -0.0000000000000000e+00 0.0000000000000000e+00 
-0.0000000000000000e+00 3.7565157154771920e+00 -0.0000000000000000e+00 
0.0000000000000000e+00 -0.0000000000000000e+00 3.7565157154771920e+00 
Al 
4 
Cartesian
   0.0000000000    0.0000000000    0.0000000000
   0.0000000000    1.8782578577    1.8782578577
   1.8782578577    0.0000000000    1.8782578577
   1.8782578577    1.8782578577    0.0000000000
