Al16 
1.0
2.8545447840999998e+00 0.0000000000000000e+00 0.0000000000000000e+00 
-0.0000000000000000e+00 6.9921781689999998e+00 0.0000000000000000e+00 
1.0000000000000000e-02 -2.3307260563000001e+00 2.6369155192400001e+01 
Al 
16 
Cartesian
   1.4339911421    0.2913407571   17.7167761449
   0.0057812500    0.2913407571   15.2446678456
   2.8622010341    0.2913407571   20.1888844442
   2.8640760341    0.2913407571   25.1331010428
   1.4364911420   -2.0393852993   24.3090649430
   1.4358661420    0.2913407571   22.6609927435
   2.8597010341    2.6220668134   13.5965956461
   1.4327411420    4.9527928697   14.4206317458
   2.8609510341    4.9527928697   16.8927400451
   2.8615760341    2.6220668134   18.5408122447
   1.4333661420    2.6220668134   16.0687039454
   2.8628260341    4.9527928697   21.8369566437
   1.4352411420    2.6220668134   21.0129205439
   1.4346161420    4.9527928697   19.3648483444
   2.8634510341    2.6220668134   23.4850288432
   1.4371161420    2.6220668134   25.9571371425
