Al16
1.0
   2.8545447841216616    0.0000000000000000    0.0000000000000002
  -0.0000000000000004    6.9650239764631516   -0.6156269606104956
   0.0000000000000000    0.0000000000000000   26.4719593062514313
Al
16
direct
   1.0000000000000000    0.6718750000090733    0.8906250000010888 Al
   0.0000000000000002    0.3593750000090734    0.9531250000010888 Al
   0.5000000000000000    0.0156250000047182    0.9218749999996371 Al
   0.5000000000000000    0.7031250000047182    0.9843749999996371 Al
   0.9999999999999999    0.2968750000090734    0.7656250000010888 Al
   0.0000000000000002    0.9843750000090733    0.8281250000010888 Al
   0.4999999999999999    0.6406250000047181    0.7968749999996371 Al
   0.5000000000000000    0.3281250000047182    0.8593749999996371 Al
   0.9999999999999999    0.9218750000090736    0.6406250000010888 Al
   0.0000000000000002    0.6093750000090734    0.7031250000010888 Al
   0.4999999999999999    0.2656250000047182    0.6718749999996372 Al
   0.5000000000000000    0.9531250000047181    0.7343749999996371 Al
   0.9999999999999998    0.5468750000090736    0.5156250000010889 Al
   0.0000000000000000    0.2343750000090734    0.5781250000010888 Al
   0.4999999999999998    0.8906250000047184    0.5468749999996372 Al
   0.5000000000000000    0.5781250000047182    0.6093749999996371 Al
