Al16 
1.0
2.8613669060994233e+00 8.5937695138555300e-49 0.0000000000000000e+00 
-5.0000000000000004e-16 8.5841007182982700e+00 0.0000000000000000e+00 
1.0000000000001697e-02 1.4142135623730953e-15 2.4279503313188080e+01 
Al 
16 
Cartesian
   2.5046682650    0.8345653476    2.3605072665
   2.5041127095    4.6497212224    1.0116459714
   1.0737070342    7.0341936441    1.6860766190
   1.0731514786    2.2652488006    0.3372153238
   2.5057793761    1.7883543163    5.0582298569
   2.5052238206    5.6035101911    3.7093685617
   1.0748181453    7.9879826128    4.3837992093
   1.0742625897    3.2190377693    3.0349379141
   2.5068904872    2.7421432850    7.7559524473
   2.5063349317    6.5572991598    6.4070911521
   1.0759292564    0.3576708632    7.0815217997
   1.0753737009    4.1728267380    5.7326605045
   2.5080015983    3.6959322537   10.4536750376
   2.5074460428    7.5110881285    9.1048137424
   1.0770403675    1.3114598319    9.7792443900
   1.0764848120    5.1266157067    8.4303830949
