Al16
1.0
   2.8613669060994233    0.0000000000000000    0.0000000000000002
  -0.0000000000000005    8.5841007182982700    0.0000000000000005
   0.0000000000000000    0.0000000000000000   24.2795033131880800
Al
16
direct
   0.8749999999851551    0.0972222222215153    0.0972222222215153 Al
   0.8749999999851552    0.5416666666659598    0.0416666666659598 Al
   0.3749999999851552    0.8194444444399674    0.0694444444442088 Al
   0.3749999999851551    0.2638888888844119    0.0138888888886532 Al
   0.8749999999851550    0.2083333333326264    0.2083333333326264 Al
   0.8749999999851551    0.6527777777770709    0.1527777777770709 Al
   0.3749999999851552    0.9305555555510785    0.1805555555553199 Al
   0.3749999999851551    0.3749999999955230    0.1249999999997644 Al
   0.8749999999851554    0.3194444444437376    0.3194444444437376 Al
   0.8749999999851548    0.7638888888881820    0.2638888888881820 Al
   0.3749999999851554    0.0416666666621897    0.2916666666664310 Al
   0.3749999999851550    0.4861111111066341    0.2361111111108755 Al
   0.8749999999851550    0.4305555555548486    0.4305555555548486 Al
   0.8749999999851550    0.8749999999992931    0.3749999999992931 Al
   0.3749999999851554    0.1527777777733008    0.4027777777775421 Al
   0.3749999999851554    0.5972222222177452    0.3472222222219866 Al
