ATOMIC_SPECIES
Al 26.982 ./pp_orb/Al_ONCV_PBE-1.0.upf

NUMERICAL_ORBITAL
./pp_orb/Al_gga_9au_100Ry_4s4p1d.orb

LATTICE_CONSTANT
1.8897261246257702

LATTICE_VECTORS
2.8613669060994233 8.59376951385553e-49 0.0 
-5e-16 8.58410071829827 0.0 
0.010000000000001697 1.4142135623730953e-15 24.27950331318808 

ATOMIC_POSITIONS
Cartesian    # Cartesian(Unit is LATTICE_CONSTANT)
Al
0.0
16
2.504668265017 0.834565347606 2.360507266543 1 1 1
2.504112709461 4.649721222405 1.011645971366 1 1 1
1.073707034189 7.034193644123 1.686076618966 1 1 1
1.073151478634 2.265248800624 0.337215323789 1 1 1
2.505779376128 1.788354316306 5.058229856897 1 1 1
2.505223820572 5.603510191105 3.709368561720 1 1 1
1.074818145300 7.987982612822 4.383799209320 1 1 1
1.074262589745 3.219037769323 3.034937914143 1 1 1
2.506890487239 2.742143285006 7.755952447251 1 1 1
2.506334931683 6.557299159805 6.407091152074 1 1 1
1.075929256411 0.357670863224 7.081521799674 1 1 1
1.075373700856 4.172826738023 5.732660504497 1 1 1
2.508001598350 3.695932253706 10.453675037605 1 1 1
2.507446042795 7.511088128505 9.104813742428 1 1 1
1.077040367523 1.311459831924 9.779244390028 1 1 1
1.076484811967 5.126615706723 8.430383094851 1 1 1
