Al4 
1.0
4.0369359481000000e+00 0.0000000000000000e+00 0.0000000000000000e+00 
0.0000000000000000e+00 4.0167005527999997e+00 0.0000000000000000e+00 
0.0000000000000000e+00 0.0000000000000000e+00 4.0369359481000000e+00 
Al 
4 
Cartesian
   0.0000000000    0.0000000000    0.0000000000
   0.0000000000    2.0083502764    2.0184679741
   2.0184679741    2.0083502764    0.0000000000
   2.0184679741    0.0000000000    2.0184679741
