Al4 
1.0
4.0499988870000001e+00 0.0000000000000000e+00 0.0000000000000000e+00 
4.0499988899999999e-02 4.0497963820000002e+00 0.0000000000000000e+00 
0.0000000000000000e+00 0.0000000000000000e+00 4.0499988870000001e+00 
Al 
4 
Cartesian
   4.0499988870    0.0000000000    0.0000000000
   2.0249994435    0.0000000000    2.0249994435
   2.0452494379    2.0248981910    0.0000000000
   4.0702488815    2.0248981910    2.0249994435
