Al4 
1.0
3.8364353062999998e+00 0.0000000000000000e+00 0.0000000000000000e+00 
0.0000000000000000e+00 3.8364353062999998e+00 0.0000000000000000e+00 
0.0000000000000000e+00 0.0000000000000000e+00 3.8364353062999998e+00 
Al 
4 
Cartesian
   3.8364353063    1.9182176531    1.9182176531
   1.9182176531    1.9182176531    3.8364353063
   1.9182176531    3.8364353063    1.9182176531
   3.8364353063    3.8364353063    3.8364353063
