Al4 
1.0
3.8364353062586778e+00 0.0000000000000000e+00 0.0000000000000000e+00
1.1710189158963262e-16 3.8364353062586778e+00 0.0000000000000000e+00
1.2490283280602138e-16 1.3875166755875488e-16 3.8364353062586778e+00
Al 
4 
Cartesian
0.0000000000000000e+00 0.0000000000000000e+00 0.0000000000000000e+00
0.0000000000000000e+00 1.9182176531466930e+00 1.9182176531466930e+00
1.9182176531466930e+00 1.9182176531466930e+00 0.0000000000000000e+00
1.9182176531466930e+00 0.0000000000000000e+00 1.9182176531466930e+00
