Al4 
1.0
3.8976188042294306e+00 0.0000000000000000e+00 0.0000000000000000e+00
-2.7845803087834562e-18 3.8976188042294306e+00 0.0000000000000000e+00
-3.1375552775024870e-19 -2.2485812822101160e-18 3.8976188042294306e+00
Al 
4 
Cartesian
0.0000000000000000e+00 0.0000000000000000e+00 0.0000000000000000e+00
-0.0000000000000000e+00 1.9488094021599811e+00 1.9488094021599811e+00
1.9488094021599811e+00 1.9488094021599811e+00 0.0000000000000000e+00
1.9488094021599811e+00 0.0000000000000000e+00 1.9488094021599811e+00
