Al4 
1.0
4.1807333185999997e+00 0.0000000000000000e+00 0.0000000000000000e+00 
0.0000000000000000e+00 4.1807333185999997e+00 0.0000000000000000e+00 
0.0000000000000000e+00 0.0000000000000000e+00 4.1807333185999997e+00 
Al 
4 
Cartesian
   0.0000000000    0.0000000000    0.0000000000
   0.0000000000    2.0903666593    2.0903666593
   2.0903666593    2.0903666593    0.0000000000
   2.0903666593    0.0000000000    2.0903666593
