Al4 
1.0
4.1807333186326963e+00 0.0000000000000000e+00 0.0000000000000000e+00
1.2761111311977923e-16 4.1807333186326963e+00 0.0000000000000000e+00
1.3611214396131233e-16 1.5120383201363981e-16 4.1807333186326963e+00
Al 
4 
Cartesian
0.0000000000000000e+00 0.0000000000000000e+00 0.0000000000000000e+00
0.0000000000000000e+00 2.0903666593352592e+00 2.0903666593352592e+00
2.0903666593352592e+00 2.0903666593352592e+00 0.0000000000000000e+00
2.0903666593352592e+00 0.0000000000000000e+00 2.0903666593352592e+00
