Al16                                    
   1.00000000000000     
     2.8559545747850477    0.0000000000000000    0.0000000000000008
    -0.0000000000000005    8.5678637243551439    0.0000000000000005
     0.0100000000000000    0.0000000000000000   24.2335781590950070
   Al
    16
Direct
  0.8750000000000000  0.0972222222222214  0.0972222222222214
  0.8750000000000000  0.5416666666666643  0.0416666666666643
  0.3750000000000000  0.8194444444444429  0.0694444444444429
  0.3750000000000000  0.2638888888888857  0.0138888888888857
  0.8750000000000000  0.2083333333333357  0.2083333333333357
  0.8750000000000000  0.6527777777777786  0.1527777777777786
  0.3750000000000000  0.9305555555555571  0.1805555555555571
  0.3750000000000000  0.3750000000000000  0.1250000000000000
  0.8750000000000000  0.3194444444444429  0.3194444444444429
  0.8750000000000000  0.7638888888888857  0.2638888888888857
  0.3750000000000000  0.0416666666666643  0.2916666666666643
  0.3750000000000000  0.4861111111111143  0.2361111111111143
  0.8750000000000000  0.4305555555555571  0.4305555555555571
  0.8750000000000000  0.8750000000000000  0.3750000000000000
  0.3750000000000000  0.1527777777777786  0.4027777777777786
  0.3750000000000000  0.5972222222222214  0.3472222222222214
 
  0.00000000E+00  0.00000000E+00  0.00000000E+00
  0.00000000E+00  0.00000000E+00  0.00000000E+00
  0.00000000E+00  0.00000000E+00  0.00000000E+00
  0.00000000E+00  0.00000000E+00  0.00000000E+00
  0.00000000E+00  0.00000000E+00  0.00000000E+00
  0.00000000E+00  0.00000000E+00  0.00000000E+00
  0.00000000E+00  0.00000000E+00  0.00000000E+00
  0.00000000E+00  0.00000000E+00  0.00000000E+00
  0.00000000E+00  0.00000000E+00  0.00000000E+00
  0.00000000E+00  0.00000000E+00  0.00000000E+00
  0.00000000E+00  0.00000000E+00  0.00000000E+00
  0.00000000E+00  0.00000000E+00  0.00000000E+00
  0.00000000E+00  0.00000000E+00  0.00000000E+00
  0.00000000E+00  0.00000000E+00  0.00000000E+00
  0.00000000E+00  0.00000000E+00  0.00000000E+00
  0.00000000E+00  0.00000000E+00  0.00000000E+00
