Automatic kpoint scheme
0
Monkhorst
28 10 4
