Al16
1.0
   2.8559545747850477    0.0000000000000000    0.0000000000000008
  -0.0000000000000005    8.5678637243551439    0.0000000000000005
0.01 0.0 24.233578159095007
Al
16
Direct
   0.8750000000000001    0.0972222222222222    0.0972222222222222 Al
   0.8750000000000000    0.5416666666666667    0.0416666666666667 Al
   0.3750000000000001    0.8194444444444444    0.0694444444444444 Al
   0.3749999999999997    0.2638888888888887    0.0138888888888889 Al
   0.8750000000000000    0.2083333333333333    0.2083333333333333 Al
   0.8750000000000000    0.6527777777777778    0.1527777777777777 Al
   0.3750000000000000    0.9305555555555556    0.1805555555555555 Al
   0.3749999999999999    0.3749999999999999    0.1250000000000000 Al
   0.8750000000000000    0.3194444444444444    0.3194444444444443 Al
   0.8750000000000002    0.7638888888888888    0.2638888888888888 Al
   0.3750000000000000    0.0416666666666666    0.2916666666666666 Al
   0.3750000000000000    0.4861111111111110    0.2361111111111111 Al
   0.8750000000000004    0.4305555555555555    0.4305555555555554 Al
   0.8750000000000004    0.8750000000000000    0.3749999999999999 Al
   0.3750000000000004    0.1527777777777778    0.4027777777777777 Al
   0.3750000000000000    0.5972222222222221    0.3472222222222222 Al
