Al4 
1.0
3.5053092046907808e+00 -0.0000000000000000e+00 0.0000000000000000e+00 
-0.0000000000000000e+00 3.5053092046907808e+00 -0.0000000000000000e+00 
0.0000000000000000e+00 -0.0000000000000000e+00 3.5053092046907808e+00 
Al 
4 
Cartesian
   0.0000000000    0.0000000000    0.0000000000
   0.0000000000    1.7526546023    1.7526546023
   1.7526546023    0.0000000000    1.7526546023
   1.7526546023    1.7526546023    0.0000000000
