Al4 
1.0
3.6796681892000001e+00 0.0000000000000000e+00 0.0000000000000000e+00 
0.0000000000000000e+00 3.6796681892000001e+00 0.0000000000000000e+00 
0.0000000000000000e+00 0.0000000000000000e+00 3.6796681892000001e+00 
Al 
4 
Cartesian
   0.0000000000    0.0000000000    0.0000000000
   0.0000000000    1.8398340946    1.8398340946
   1.8398340946    1.8398340946    0.0000000000
   1.8398340946    0.0000000000    1.8398340946
