Al4 
1.0
3.6796681892241834e+00 0.0000000000000000e+00 0.0000000000000000e+00
1.1231679175650259e-16 3.6796681892241834e+00 0.0000000000000000e+00
1.1979896542775542e-16 1.3308189935715657e-16 3.6796681892241834e+00
Al 
4 
Cartesian
0.0000000000000000e+00 0.0000000000000000e+00 0.0000000000000000e+00
0.0000000000000000e+00 1.8398340946287366e+00 1.8398340946287366e+00
1.8398340946287366e+00 1.8398340946287366e+00 0.0000000000000000e+00
1.8398340946287366e+00 0.0000000000000000e+00 1.8398340946287366e+00
