Al8 
1.0
2.8637816768000000e+00 0.0000000000000000e+00 0.0000000000000000e+00 
-0.0000000000000000e+00 4.0499988870000001e+00 0.0000000000000000e+00 
1.0000000000000000e-02 0.0000000000000000e+00 2.2910253414200000e+01 
Al 
8 
Cartesian
   2.1487737576    0.0000000000    2.1478362576
   2.1500237576    0.0000000000    5.0116179344
   2.1512737576    0.0000000000    7.8753996111
   2.1525237576    0.0000000000   10.7391812879
   0.7162579192    2.0249994435    0.7159454192
   0.7175079192    2.0249994435    3.5797270960
   0.7187579192    2.0249994435    6.4435087727
   0.7200079192    2.0249994435    9.3072904495
