Al8
1.0
   2.8637816767697615    0.0000000000000000    0.0000000000000002
  -0.0000000000000002    4.0499988869633601    0.0000000000000002
0.01 0.0 22.910253414158092
Al
8
Direct
   0.7500000000067852    0.0000000000000000    0.0937500000002827 Al
   0.2500000000067852    0.4999999999954766    0.0312500000002827 Al
   0.7500000000067852    0.0000000000000000    0.2187500000002827 Al
   0.2500000000067853    0.4999999999954766    0.1562500000002827 Al
   0.7500000000067852    0.0000000000000000    0.3437500000002827 Al
   0.2500000000067852    0.4999999999954766    0.2812500000002827 Al
   0.7500000000067852    0.0000000000000000    0.4687500000002827 Al
   0.2500000000067852    0.4999999999954766    0.4062500000002827 Al
