Al4 
1.0
4.0981101103000004e+00 0.0000000000000000e+00 0.0000000000000000e+00 
0.0000000000000000e+00 4.0981101103000004e+00 0.0000000000000000e+00 
-0.0000000000000000e+00 -0.0000000000000000e+00 4.0981101103000004e+00 
Al 
4 
Cartesian
   2.0490550552    4.0981101103    2.0490550552
   2.0490550552    2.0490550552    4.0981101103
   4.0981101103    2.0490550552    2.0490550552
   4.0981101103    4.0981101103    4.0981101103
