Al4 
1.0
4.0981101103239972e+00 0.0000000000000000e+00 0.0000000000000000e+00
1.4721045063699312e-18 4.0981101103239972e+00 0.0000000000000000e+00
-5.3029830051657116e-18 -8.1353508862060825e-18 4.0981101103239972e+00
Al 
4 
Cartesian
-0.0000000000000000e+00 0.0000000000000000e+00 0.0000000000000000e+00
-0.0000000000000000e+00 2.0490550551354656e+00 2.0490550551354656e+00
2.0490550551354656e+00 2.0490550551354656e+00 0.0000000000000000e+00
2.0490550551354656e+00 -0.0000000000000000e+00 2.0490550551354656e+00
