Al16 
1.0
2.8637816768000000e+00 0.0000000000000000e+00 0.0000000000000000e+00 
-0.0000000000000000e+00 7.0148038428000001e+00 0.0000000000000000e+00 
1.0000000000000000e-02 -2.3382679475999999e+00 2.6454481951700000e+01 
Al 
16 
Cartesian
   1.4386095884    0.2922834935   17.7741050613
   2.8695629268    0.2922834935   15.2939973783
   2.8714379268    0.2922834935   20.2542127443
   2.8733129268    0.2922834935   25.2144281102
   1.4411095884   -2.0459844541   24.3877255492
   1.4404845884    0.2922834934   22.7343204272
   2.8689379268    2.6305514410   13.6405922563
   1.4373595884    4.9688193887   14.4672948173
   0.0064062500    4.9688193887   16.9474025003
   2.8708129268    2.6305514411   18.6008076223
   1.4379845884    2.6305514411   16.1206999393
   2.8720629268    4.9688193887   21.9076178663
   1.4398595884    2.6305514411   21.0809153053
   1.4392345884    4.9688193887   19.4275101833
   2.8726879268    2.6305514410   23.5610229882
   1.4417345884    2.6305514411   26.0411306712
