Al16
1.0
   2.8637816767697615    0.0000000000000000    0.0000000000000002
  -0.0000000000000004    6.9875617832335681   -0.6176190401105544
   0.0000000000000000    0.0000000000000000   26.5576187247537590
Al
16
direct
   0.0000000000000000    0.6718750000035338    0.8906250000004241 Al
   0.9999999999999999    0.3593750000035340    0.9531250000004241 Al
   0.5000000000000000    0.0156250000018376    0.9218749999998587 Al
   0.4999999999999998    0.7031250000018376    0.9843749999998587 Al
   0.0000000000000000    0.2968750000035340    0.7656250000004241 Al
   0.9999999999999999    0.9843750000035338    0.8281250000004241 Al
   0.5000000000000000    0.6406250000018376    0.7968749999998586 Al
   0.4999999999999998    0.3281250000018376    0.8593749999998587 Al
   0.0000000000000000    0.9218750000035338    0.6406250000004239 Al
   0.9999999999999999    0.6093750000035338    0.7031250000004241 Al
   0.5000000000000000    0.2656250000018376    0.6718749999998586 Al
   0.4999999999999998    0.9531250000018376    0.7343749999998587 Al
   0.0000000000000000    0.5468750000035338    0.5156250000004239 Al
   0.9999999999999999    0.2343750000035338    0.5781250000004240 Al
   0.5000000000000000    0.8906250000018376    0.5468749999998586 Al
   0.4999999999999998    0.5781250000018376    0.6093749999998586 Al
