Al5                                     
   1.00000000000000     
     2.8506213216254559    0.0000000000000000    0.1744551917541694
     1.4199724186373981    2.4717848307679851    0.1744551917541694
     0.0100000000000000    0.0000000000000000   23.3769956950585929
   Al
     5
Direct
  0.6499999999999986  0.6499999999999986  0.0499999999999972
  0.9500000000000028  0.9500000000000028  0.1499999999999986
  0.2500000000000000  0.2500000000000000  0.2500000000000000
  0.5499999999999972  0.5499999999999972  0.3500000000000014
  0.8500000000000014  0.8500000000000014  0.4500000000000028
 
  0.00000000E+00  0.00000000E+00  0.00000000E+00
  0.00000000E+00  0.00000000E+00  0.00000000E+00
  0.00000000E+00  0.00000000E+00  0.00000000E+00
  0.00000000E+00  0.00000000E+00  0.00000000E+00
  0.00000000E+00  0.00000000E+00  0.00000000E+00
