Automatic kpoint scheme
0
Monkhorst
32 32 4
