Al5
1.0
   2.8506213216254559    0.0000000000000000    0.1744551917541694
   1.4199724186373981    2.4717848307679851    0.1744551917541694
   0.0000000000000000    0.0000000000000000   23.3769956950585929
Al
5
direct
   0.6499999999999999    0.6500000000000001    0.0500000000000000 Al
   0.9499999999999997    0.9500000000000002    0.1500000000000000 Al
   0.2499999999999998    0.2500000000000002    0.2500000000000000 Al
   0.5499999999999998    0.5500000000000007    0.3499999999999999 Al
   0.8499999999999992    0.8500000000000001    0.4500000000000000 Al
