Al4 
1.0
3.4969517840000002e+00 0.0000000000000000e+00 0.0000000000000000e+00 
-0.0000000000000000e+00 3.4969517840000002e+00 0.0000000000000000e+00 
-0.0000000000000000e+00 -0.0000000000000000e+00 3.4969517840000002e+00 
Al 
4 
Cartesian
   1.7484758920    3.4969517840    1.7484758920
   1.7484758920    1.7484758920    3.4969517840
   3.4969517840    1.7484758920    1.7484758920
   3.4969517840    3.4969517840    3.4969517840
