Al4 
1.0
3.4969517840060718e+00 0.0000000000000000e+00 0.0000000000000000e+00
-2.4983313062688342e-18 3.4969517840060718e+00 0.0000000000000000e+00
-2.8150211901620676e-19 -2.0174318529494821e-18 3.4969517840060718e+00
Al 
4 
Cartesian
0.0000000000000000e+00 0.0000000000000000e+00 0.0000000000000000e+00
-0.0000000000000000e+00 1.7484758920436485e+00 1.7484758920436485e+00
1.7484758920436485e+00 1.7484758920436485e+00 0.0000000000000000e+00
1.7484758920436485e+00 0.0000000000000000e+00 1.7484758920436485e+00
