Al4 
1.0
4.0319999997000000e+00 0.0000000000000000e+00 0.0000000000000000e+00 
0.0000000000000000e+00 4.0319999997000000e+00 0.0000000000000000e+00 
0.0000000000000000e+00 0.0000000000000000e+00 4.0117893460999996e+00 
Al 
4 
Cartesian
   2.0159999999    2.0159999999    4.0117893461
   2.0159999999    4.0319999997    2.0058946730
   4.0319999997    2.0159999999    2.0058946730
   4.0319999997    4.0319999997    4.0117893461
