Al8 
1.0
2.8613669060994233e+00 7.0172247166826746e-49 0.0000000000000000e+00 
-1.9999999999999997e-16 4.0465838855313470e+00 -2.4651903288156619e-32 
1.0000000000001600e-02 1.1313708498984763e-15 2.2890935248795387e+01 
Al 
8 
Cartesian
   2.1469626796    0.0000000000    2.1460251796
   0.7156542266    2.0232919427    0.7153417265
   2.1482126796    0.0000000000    5.0073920857
   0.7169042266    2.0232919427    3.5767086326
   2.1494626796    0.0000000000    7.8687589918
   0.7181542266    2.0232919427    6.4380755387
   2.1507126796    0.0000000000   10.7301258979
   0.7194042266    2.0232919427    9.2994424448
