Al8
1.0
   2.8613669060994233    0.0000000000000000    0.0000000000000002
  -0.0000000000000002    4.0465838855313470    0.0000000000000002
   0.0000000000000000    0.0000000000000000   22.8909352487953868
Al
8
direct
   0.7500000000127243    0.0000000000000000    0.0937500000005302 Al
   0.2500000000127240    0.4999999999915172    0.0312500000005302 Al
   0.7500000000127243    0.0000000000000000    0.2187500000005302 Al
   0.2500000000127240    0.4999999999915172    0.1562500000005302 Al
   0.7500000000127240    0.0000000000000000    0.3437500000005301 Al
   0.2500000000127238    0.4999999999915172    0.2812500000005301 Al
   0.7500000000127240    0.0000000000000000    0.4687500000005301 Al
   0.2500000000127240    0.4999999999915172    0.4062500000005301 Al
