ATOMIC_SPECIES
Al 26.982 ./pp_orb/Al_ONCV_PBE-1.0.upf

NUMERICAL_ORBITAL
./pp_orb/Al_gga_9au_100Ry_4s4p1d.orb

LATTICE_CONSTANT
1.8897261246257702

LATTICE_VECTORS
2.8613669060994233 7.017224716682675e-49 0.0 
-1.9999999999999997e-16 4.046583885531347 -2.465190328815662e-32 
0.0100000000000016 1.1313708498984763e-15 22.890935248795387 

ATOMIC_POSITIONS
Cartesian    # Cartesian(Unit is LATTICE_CONSTANT)
Al
0.0
8
2.146962679611 0.000000000000 2.146025179587 1 1 1
0.715654226561 2.023291942731 0.715341726537 1 1 1
2.148212679611 0.000000000000 5.007392085686 1 1 1
0.716904226561 2.023291942731 3.576708632636 1 1 1
2.149462679611 0.000000000000 7.868758991786 1 1 1
0.718154226561 2.023291942731 6.438075538736 1 1 1
2.150712679611 0.000000000000 10.730125897885 1 1 1
0.719404226561 2.023291942731 9.299442444835 1 1 1
