Al4
1.0
   4.0465838855313470    0.0000000000000000    0.0000000000000000
  -0.0809316777106269    4.0457744878063728    0.0000000000000000
   0.0000000000000000    0.0000000000000000    4.0465838855313470
Al
4
direct
   0.0000000000000000    0.0000000000000000    0.0000000000000000 Al
   0.0000000000000000    0.5000000000084828    0.5000000000084828 Al
   0.5000000000084828    0.0000000000000000    0.5000000000084828 Al
   0.5000000000084828    0.5000000000084828    0.0000000000000000 Al
