Al4 
1.0
3.8928531984000001e+00 0.0000000000000000e+00 0.0000000000000000e+00 
0.0000000000000000e+00 3.8928531984000001e+00 0.0000000000000000e+00 
-0.0000000000000000e+00 -0.0000000000000000e+00 3.8928531984000001e+00 
Al 
4 
Cartesian
   0.0000000000    0.0000000000    0.0000000000
   1.9464265992    0.0000000000    1.9464265992
   1.9464265992    1.9464265992    0.0000000000
   0.0000000000    1.9464265992    1.9464265992
