Al4 
1.0
3.8928531983941119e+00 0.0000000000000000e+00 0.0000000000000000e+00
1.3983730504350706e-18 3.8928531983941119e+00 0.0000000000000000e+00
-5.0373791325623660e-18 -7.7278857485168713e-18 3.8928531983941119e+00
Al 
4 
Cartesian
-0.0000000000000000e+00 0.0000000000000000e+00 0.0000000000000000e+00
-0.0000000000000000e+00 1.9464265991718517e+00 1.9464265991718517e+00
1.9464265991718517e+00 1.9464265991718517e+00 0.0000000000000000e+00
1.9464265991718517e+00 -0.0000000000000000e+00 1.9464265991718517e+00
