Al5 
1.0
2.8510545414999999e+00 0.0000000000000000e+00 0.0000000000000000e+00 
1.4255272707000000e+00 2.4690856605000002e+00 0.0000000000000000e+00 
1.4355085966000001e+00 8.2300697030000003e-01 2.3278152385900000e+01 
Al 
5 
Cartesian
   2.8515536078    1.6460560278    1.1639076193
   4.2780790111    2.4690824230    3.4917228579
   1.4280226022    0.8230231577    5.8195380965
   2.8545480055    1.6460495529    8.1473533351
   4.2810734088    2.4690759481   10.4751685737
