Al5
1.0
   2.8457304387355857    0.0000000000000000    0.1741558745821808
   1.4175361361491869    2.4675439271991619    0.1741558745821808
   0.0000000000000000    0.0000000000000000   23.3368871940121174
Al
5
direct
   0.6499999999912593    0.6499999999912592    0.0500000000003237 Al
   0.9499999999912589    0.9499999999912591    0.1500000000003238 Al
   0.2499999999912590    0.2499999999912594    0.2500000000003237 Al
   0.5499999999912588    0.5499999999912595    0.3500000000003237 Al
   0.8499999999912586    0.8499999999912600    0.4500000000003238 Al
