Al12                                    
   1.00000000000000     
     4.0261279820785498    0.0000000000000000    0.3213199937684983
     2.0002419274020826    4.5127835415821078    0.3213199937684972
     0.0100000000000000    0.0000000000000000   25.3842795077113799
   Al
    12
Direct
  0.4464285714285694  0.1607142857142847  0.9464285714285694
  0.8750000000000000  0.3750000000000000  0.8750000000000000
  0.7321428571428541  0.5535714285714306  0.9821428571428541
  0.1607142857142847  0.7678571428571459  0.9107142857142847
  0.3035714285714306  0.5892857142857153  0.8035714285714306
  0.7321428571428541  0.8035714285714306  0.7321428571428541
  0.5892857142857153  0.9821428571428541  0.8392857142857153
  0.0178571428571459  0.1964285714285694  0.7678571428571459
  0.1607142857142847  0.0178571428571459  0.6607142857142847
  0.5892857142857153  0.2321428571428541  0.5892857142857153
  0.4464285714285694  0.4107142857142847  0.6964285714285694
  0.8750000000000000  0.6250000000000000  0.6250000000000000
 
  0.00000000E+00  0.00000000E+00  0.00000000E+00
  0.00000000E+00  0.00000000E+00  0.00000000E+00
  0.00000000E+00  0.00000000E+00  0.00000000E+00
  0.00000000E+00  0.00000000E+00  0.00000000E+00
  0.00000000E+00  0.00000000E+00  0.00000000E+00
  0.00000000E+00  0.00000000E+00  0.00000000E+00
  0.00000000E+00  0.00000000E+00  0.00000000E+00
  0.00000000E+00  0.00000000E+00  0.00000000E+00
  0.00000000E+00  0.00000000E+00  0.00000000E+00
  0.00000000E+00  0.00000000E+00  0.00000000E+00
  0.00000000E+00  0.00000000E+00  0.00000000E+00
  0.00000000E+00  0.00000000E+00  0.00000000E+00
