Automatic kpoint scheme
0
Monkhorst
22 18 4
