Al12
1.0
   4.0261279820785498    0.0000000000000000    0.3213199937684983
   2.0002419274020826    4.5127835415821078    0.3213199937684972
   0.0000000000000000    0.0000000000000000   25.3842795077113799
Al
12
direct
   0.4464285714285715    0.1607142857142857    0.9464285714285714 Al
   0.8750000000000000    0.3750000000000000    0.8750000000000000 Al
   0.7321428571428571    0.5535714285714286    0.9821428571428571 Al
   0.1607142857142857    0.7678571428571428    0.9107142857142857 Al
   0.3035714285714286    0.5892857142857142    0.8035714285714286 Al
   0.7321428571428572    0.8035714285714286    0.7321428571428572 Al
   0.5892857142857143    0.9821428571428572    0.8392857142857143 Al
   0.0178571428571429    0.1964285714285714    0.7678571428571429 Al
   0.1607142857142858    0.0178571428571427    0.6607142857142858 Al
   0.5892857142857143    0.2321428571428572    0.5892857142857144 Al
   0.4464285714285714    0.4107142857142858    0.6964285714285715 Al
   0.8750000000000000    0.6250000000000001    0.6250000000000000 Al
