Al5 
1.0
2.8545447840999998e+00 0.0000000000000000e+00 0.0000000000000000e+00 
1.4272723920999999e+00 2.4721082992999999e+00 0.0000000000000000e+00 
1.4372537179000000e+00 8.2401451650000002e-01 2.3306650097599999e+01 
Al 
5 
Cartesian
   2.8550438504    1.6480711204    1.1653325049
   4.2833143751    2.4721050618    3.4959975146
   1.4297677235    0.8240307039    5.8266625244
   2.8580382482    1.6480646454    8.1573275342
   4.2863087728    2.4720985868   10.4879925439
