Al5
1.0
   2.8492141636266699    0.0000000000000000    0.1743690750831671
   1.4192714747653439    2.4705646785964195    0.1743690750831671
   0.0000000000000000    0.0000000000000000   23.3654560611442861
Al
5
direct
   0.6500000000156785    0.6500000000156785    0.0499999999994193 Al
   0.9500000000156785    0.9500000000156785    0.1499999999994193 Al
   0.2500000000156786    0.2500000000156786    0.2499999999994194 Al
   0.5500000000156788    0.5500000000156788    0.3499999999994194 Al
   0.8500000000156787    0.8500000000156787    0.4499999999994195 Al
