Al12 
1.0
4.0465838855313461e+00 3.4875427417804588e-18 6.7928811237537939e-17 
2.0232919427656735e+00 4.5242183223516585e+00 6.4127146005668740e-17 
2.0332602469648622e+00 9.0481526981325466e-01 2.5334827554770982e+01 
Al 
12 
Cartesian
   4.0560181734    1.5834495393   23.9776046500
   6.0785980945    2.4882952320   22.1679741104
   6.0796661270    3.3931358542   24.8824199199
   4.0556621626    4.2979815469   23.0727893802
   4.0545941300    3.3931409246   20.3583435708
   6.0771740510    4.2979866173   18.5487130311
   6.0782420836    5.2028272395   21.2631588406
   2.0309461763    1.5834546098   19.4535283010
   2.0298781437    0.6786139876   16.7390824915
   4.0524580648    1.5834596803   14.9294519519
   4.0535260974    2.4883003025   17.6438977614
   6.0761060184    3.3931459951   15.8342672217
