Al12
1.0
   4.0337579138517921    0.0000000000000000    0.3219289286162590
   2.0040325941429287    4.5213357363168347    0.3219289286162600
   0.0000000000000000    0.0000000000000000   25.4323853606844708
Al
12
direct
   0.4464285714234212    0.1607142857170124    0.9464285714276626 Al
   0.8749999999948497    0.3750000000027267    0.8749999999990912 Al
   0.7321428571340715    0.5535714285808202    0.9821428571425542 Al
   0.1607142857055000    0.7678571428665344    0.9107142857139827 Al
   0.3035714285662783    0.5892857142884409    0.8035714285705198 Al
   0.7321428571377069    0.8035714285741552    0.7321428571419483 Al
   0.5892857142769286    0.9821428571522488    0.8392857142854113 Al
   0.0178571428483571    0.1964285714379628    0.7678571428568399 Al
   0.1607142857091355    0.0178571428598694    0.6607142857133768 Al
   0.5892857142805639    0.2321428571455837    0.5892857142848054 Al
   0.4464285714197856    0.4107142857236774    0.6964285714282685 Al
   0.8749999999912141    0.6250000000093914    0.6249999999996970 Al
