ATOMIC_SPECIES
Al 26.982 ./pp_orb/Al_ONCV_PBE-1.0.upf

NUMERICAL_ORBITAL
./pp_orb/Al_gga_9au_100Ry_4s4p1d.orb

LATTICE_CONSTANT
1.8897261246257702

LATTICE_VECTORS
4.046583885531346 3.487542741780459e-18 6.792881123753794e-17 
2.0232919427656735 4.5242183223516585 6.412714600566874e-17 
2.033260246964862 0.9048152698132547 25.334827554770982 

ATOMIC_POSITIONS
Cartesian    # Cartesian(Unit is LATTICE_CONSTANT)
Al
0.0
12
4.056018173417 1.583449539320 23.977604650028 1 1 1
6.078598094454 2.488295231980 22.167974110402 1 1 1
6.079666127047 3.393135854196 24.882419919857 1 1 1
4.055662162553 4.297981546856 23.072789380230 1 1 1
4.054594129960 3.393140924640 20.358343570775 1 1 1
6.077174050997 4.297986617300 18.548713031149 1 1 1
6.078242083590 5.202827239517 21.263158840604 1 1 1
2.030946176330 1.583454609825 19.453528300977 1 1 1
2.029878143737 0.678613987609 16.739082491522 1 1 1
4.052458064774 1.583459680269 14.929451951896 1 1 1
4.053526097367 2.488300302485 17.643897761351 1 1 1
6.076106018404 3.393145995145 15.834267221724 1 1 1
