Al4 
1.0
3.8976188042000000e+00 0.0000000000000000e+00 0.0000000000000000e+00 
-0.0000000000000000e+00 3.8976188042000000e+00 0.0000000000000000e+00 
-0.0000000000000000e+00 -0.0000000000000000e+00 3.8976188042000000e+00 
Al 
4 
Cartesian
   0.0000000001    0.0000000001    0.0000000001
   1.9488094021    0.0000000001    1.9488094021
   1.9488094021    1.9488094021    0.0000000001
   0.0000000001    1.9488094021    1.9488094021
