Al4 
1.0
4.2294556196539785e+00 0.0000000000000000e+00 0.0000000000000000e+00
-3.0216548685012808e-18 4.2294556196539785e+00 0.0000000000000000e+00
-3.4046815419732753e-19 -2.4400217717475145e-18 4.2294556196539785e+00
Al 
4 
Cartesian
0.0000000000000000e+00 0.0000000000000000e+00 0.0000000000000000e+00
-0.0000000000000000e+00 2.1147278098761091e+00 2.1147278098761091e+00
2.1147278098761091e+00 2.1147278098761091e+00 0.0000000000000000e+00
2.1147278098761091e+00 0.0000000000000000e+00 2.1147278098761091e+00
