Al4 
1.0
4.0465838855090563e+00 0.0000000000000000e+00 0.0000000000000000e+00 
0.0000000000000000e+00 4.0263001293090115e+00 0.0000000000000000e+00 
0.0000000000000000e+00 0.0000000000000000e+00 4.0465838855090563e+00 
Al 
4 
Cartesian
   0.0000000000    0.0000000000    0.0000000000
   0.0000000000    2.0131500647    2.0232919428
   2.0232919428    0.0000000000    2.0232919428
   2.0232919428    2.0131500647    0.0000000000
