Al4                                     
   1.0322801154563672     
     4.0389296931825003    0.0000000000000000    0.0000000000000002
    -0.0000000000000002    4.0389296931825003    0.0000000000000002
     0.0000000000000000    0.0000000000000000    4.0389296931825003
   Al
     4
Direct
  0.0000000000000000  0.0000000000000000  0.0000000000000000
  0.0000000000000000  0.5000000000000000  0.5000000000000000
  0.5000000000000000  0.0000000000000000  0.5000000000000000
  0.5000000000000000  0.5000000000000000  0.0000000000000000

  0.00000000E+00  0.00000000E+00  0.00000000E+00
  0.00000000E+00  0.00000000E+00  0.00000000E+00
  0.00000000E+00  0.00000000E+00  0.00000000E+00
  0.00000000E+00  0.00000000E+00  0.00000000E+00
