Al4 
1.0
4.1772080805582483e+00 -0.0000000000000000e+00 0.0000000000000000e+00 
-0.0000000000000000e+00 4.1772080805582483e+00 -0.0000000000000000e+00 
0.0000000000000000e+00 -0.0000000000000000e+00 4.1772080805582483e+00 
Al 
4 
Cartesian
   0.0000000000    0.0000000000    0.0000000000
   0.0000000000    2.0886040403    2.0886040403
   2.0886040403    0.0000000000    2.0886040403
   2.0886040403    2.0886040403    0.0000000000
