Al4 
1.0
4.4616597571999996e+00 0.0000000000000000e+00 0.0000000000000000e+00 
-0.0000000000000000e+00 4.4616597571999996e+00 0.0000000000000000e+00 
-0.0000000000000000e+00 -0.0000000000000000e+00 4.4616597571999996e+00 
Al 
4 
Cartesian
   0.0000000001    0.0000000001    0.0000000001
   2.2308298786    0.0000000001    2.2308298786
   2.2308298786    2.2308298786    0.0000000001
   0.0000000001    2.2308298786    2.2308298786
