Al4 
1.0
4.4616597572451164e+00 0.0000000000000000e+00 0.0000000000000000e+00
-3.1875487389979775e-18 4.4616597572451164e+00 0.0000000000000000e+00
-3.5916042129554688e-19 -2.5739830192847531e-18 4.4616597572451164e+00
Al 
4 
Cartesian
0.0000000000000000e+00 0.0000000000000000e+00 0.0000000000000000e+00
-0.0000000000000000e+00 2.2308298786743745e+00 2.2308298786743745e+00
2.2308298786743745e+00 2.2308298786743745e+00 0.0000000000000000e+00
2.2308298786743745e+00 0.0000000000000000e+00 2.2308298786743745e+00
