Al4 
1.0
4.4562045004000002e+00 0.0000000000000000e+00 0.0000000000000000e+00 
0.0000000000000000e+00 4.4562045004000002e+00 0.0000000000000000e+00 
-0.0000000000000000e+00 -0.0000000000000000e+00 4.4562045004000002e+00 
Al 
4 
Cartesian
   0.0000000000    0.0000000000    0.0000000000
   2.2281022502    0.0000000000    2.2281022502
   2.2281022502    2.2281022502    0.0000000000
   0.0000000000    2.2281022502    2.2281022502
