Al4 
1.0
4.4562045003710322e+00 0.0000000000000000e+00 0.0000000000000000e+00
1.6007375472357741e-18 4.4562045003710322e+00 0.0000000000000000e+00
-5.7663596381850892e-18 -8.8462208811521794e-18 4.4562045003710322e+00
Al 
4 
Cartesian
-0.0000000000000000e+00 0.0000000000000000e+00 0.0000000000000000e+00
-0.0000000000000000e+00 2.2281022501566641e+00 2.2281022501566641e+00
2.2281022501566641e+00 2.2281022501566641e+00 0.0000000000000000e+00
2.2281022501566641e+00 -0.0000000000000000e+00 2.2281022501566641e+00
