Al4 
1.0
3.5800289347000001e+00 0.0000000000000000e+00 0.0000000000000000e+00 
0.0000000000000000e+00 3.5800289347000001e+00 0.0000000000000000e+00 
-0.0000000000000000e+00 -0.0000000000000000e+00 3.5800289347000001e+00 
Al 
4 
Cartesian
   3.5800289347    1.7900144674    1.7900144674
   1.7900144674    1.7900144674    3.5800289347
   1.7900144674    3.5800289347    1.7900144674
   3.5800289347    3.5800289347    3.5800289347
