Al4 
1.0
3.5800289347173622e+00 0.0000000000000000e+00 0.0000000000000000e+00
1.2860017388150440e-18 3.5800289347173622e+00 0.0000000000000000e+00
-4.6325823581413563e-18 -7.1068836079647699e-18 3.5800289347173622e+00
Al 
4 
Cartesian
-0.0000000000000000e+00 0.0000000000000000e+00 0.0000000000000000e+00
-0.0000000000000000e+00 1.7900144673355021e+00 1.7900144673355021e+00
1.7900144673355021e+00 1.7900144673355021e+00 0.0000000000000000e+00
1.7900144673355021e+00 -0.0000000000000000e+00 1.7900144673355021e+00
