Al6 
1.0
2.8613669060994233e+00 -1.7600028683354940e-48 0.0000000000000000e+00 
-1.9999999999999997e-16 2.8613669060994233e+00 -2.4651903288156619e-32 
1.0000000000001697e-02 1.6970562748477142e-15 2.4279503313188080e+01 
Al 
6 
Cartesian
   2.8701169061    0.0000000000   21.2445653991
   1.4402667864    1.4306834531   23.2678573418
   2.8684502394    0.0000000000   17.1979815135
   1.4386001197    1.4306834531   19.2212734563
   2.8667835727    0.0000000000   13.1513976280
   1.4369334530    1.4306834531   15.1746895707
