Al6
1.0
   2.8613669060994233    0.0000000000000000    0.0000000000000002
  -0.0000000000000002    2.8613669060994233    0.0000000000000002
   0.0000000000000000    0.0000000000000000   24.2795033131880800
Al
6
direct
   0.9999999999915172    0.0000000000000000    0.8750000000007069 Al
   0.4999999999915172    0.5000000000000000    0.9583333333326265 Al
   0.9999999999915172    0.0000000000000000    0.7083333333340402 Al
   0.4999999999915172    0.5000000000000000    0.7916666666659598 Al
   0.9999999999915172    0.0000000000000000    0.5416666666673735 Al
   0.4999999999915172    0.5000000000000000    0.6249999999992931 Al
