ATOMIC_SPECIES
Al 26.982 ./pp_orb/Al_ONCV_PBE-1.0.upf

NUMERICAL_ORBITAL
./pp_orb/Al_gga_9au_100Ry_4s4p1d.orb

LATTICE_CONSTANT
1.8897261246257702

LATTICE_VECTORS
2.8613669060994233 -1.760002868335494e-48 0.0 
-1.9999999999999997e-16 2.8613669060994233 -2.465190328815662e-32 
0.010000000000001697 1.6970562748477142e-15 24.27950331318808 

ATOMIC_POSITIONS
Cartesian    # Cartesian(Unit is LATTICE_CONSTANT)
Al
0.0
6
2.870116906075 0.000000000000 21.244565399057 1 1 1
1.440266786359 1.430683453050 23.267857341788 1 1 1
2.868450239408 0.000000000000 17.197981513525 1 1 1
1.438600119692 1.430683453050 19.221273456257 1 1 1
2.866783572742 0.000000000000 13.151397627994 1 1 1
1.436933453025 1.430683453050 15.174689570725 1 1 1
