Al4 
1.0
4.1164041137999998e+00 0.0000000000000000e+00 0.0000000000000000e+00 
0.0000000000000000e+00 4.1164041137999998e+00 0.0000000000000000e+00 
0.0000000000000000e+00 0.0000000000000000e+00 4.1164041137999998e+00 
Al 
4 
Cartesian
   0.0000000000    0.0000000000    0.0000000000
   2.0582020569    0.0000000000    2.0582020569
   2.0582020569    2.0582020569    0.0000000000
   0.0000000000    2.0582020569    2.0582020569
