Al4 
1.0
4.1164041138137710e+00 0.0000000000000000e+00 0.0000000000000000e+00
1.2564755294805843e-16 4.1164041138137710e+00 0.0000000000000000e+00
1.3401777789682153e-16 1.4887724920204039e-16 4.1164041138137710e+00
Al 
4 
Cartesian
0.0000000000000000e+00 0.0000000000000000e+00 0.0000000000000000e+00
0.0000000000000000e+00 2.0582020569255057e+00 2.0582020569255057e+00
2.0582020569255057e+00 2.0582020569255057e+00 0.0000000000000000e+00
2.0582020569255057e+00 0.0000000000000000e+00 2.0582020569255057e+00
