Al6                                     
   1.00000000000000     
     2.8559545747850481    0.0000000000000000    0.0000000000000002
    -0.0000000000000002    2.8559545747850481    0.0000000000000002
     0.0100000000000000    0.0000000000000000   24.2335781590950035
   Al
     6
Direct
  0.0000000000000000  0.0000000000000000  0.8750000000000000
  0.5000000000000000  0.5000000000000000  0.9583333333333357
  0.0000000000000000  0.0000000000000000  0.7083333333333357
  0.5000000000000000  0.5000000000000000  0.7916666666666643
  0.0000000000000000  0.0000000000000000  0.5416666666666643
  0.5000000000000000  0.5000000000000000  0.6250000000000000
 
  0.00000000E+00  0.00000000E+00  0.00000000E+00
  0.00000000E+00  0.00000000E+00  0.00000000E+00
  0.00000000E+00  0.00000000E+00  0.00000000E+00
  0.00000000E+00  0.00000000E+00  0.00000000E+00
  0.00000000E+00  0.00000000E+00  0.00000000E+00
  0.00000000E+00  0.00000000E+00  0.00000000E+00
