ALGO = Fast
EDIFF = 1e-06
ENCUT = 400
IBRION = 2
ISIF = 3
ISMEAR = 1
KSPACING = 0.08
LCHARG = False
LREAL = Auto
LWAVE = False
NELM = 60
NELMIN = 4
NSW = 0
PREC = Accurate
SIGMA = 0.2
SYSTEM = Al fcc relaxation
