Automatic kpoint scheme
0
Monkhorst
28 28 4
