Al6
1.0
   2.8559545747850481    0.0000000000000000    0.0000000000000002
  -0.0000000000000002    2.8559545747850481    0.0000000000000002
0.01 0.0 24.233578159095003
Al
6
Direct
   1.0000000000000000    0.0000000000000000    0.8750000000000000 Al
   0.5000000000000000    0.5000000000000000    0.9583333333333334 Al
   1.0000000000000000    0.0000000000000000    0.7083333333333334 Al
   0.4999999999999999    0.5000000000000001    0.7916666666666667 Al
   1.0000000000000000    0.0000000000000000    0.5416666666666667 Al
   0.5000000000000000    0.5000000000000000    0.6250000000000000 Al
