Al4 
1.0
3.7475593637000002e+00 0.0000000000000000e+00 0.0000000000000000e+00 
-0.0000000000000000e+00 3.7475593637000002e+00 0.0000000000000000e+00 
-0.0000000000000000e+00 -0.0000000000000000e+00 3.7475593637000002e+00 
Al 
4 
Cartesian
   0.0000000000    0.0000000000    0.0000000000
   1.8737796819    0.0000000000    1.8737796819
   1.8737796819    1.8737796819    0.0000000000
   0.0000000000    1.8737796819    1.8737796819
