Al4 
1.0
3.7475593637479814e+00 0.0000000000000000e+00 0.0000000000000000e+00
-2.6773731692196072e-18 3.7475593637479814e+00 0.0000000000000000e+00
-3.0167585005291355e-19 -2.1620102587125478e-18 3.7475593637479814e+00
Al 
4 
Cartesian
0.0000000000000000e+00 0.0000000000000000e+00 0.0000000000000000e+00
-0.0000000000000000e+00 1.8737796819175137e+00 1.8737796819175137e+00
1.8737796819175137e+00 1.8737796819175137e+00 0.0000000000000000e+00
1.8737796819175137e+00 0.0000000000000000e+00 1.8737796819175137e+00
