Al4 
1.0
3.4130210319407834e+00 -0.0000000000000000e+00 0.0000000000000000e+00 
-0.0000000000000000e+00 3.4130210319407834e+00 -0.0000000000000000e+00 
0.0000000000000000e+00 -0.0000000000000000e+00 3.4130210319407834e+00 
Al 
4 
Cartesian
   0.0000000000    0.0000000000    0.0000000000
   0.0000000000    1.7065105160    1.7065105160
   1.7065105160    0.0000000000    1.7065105160
   1.7065105160    1.7065105160    0.0000000000
