Al4 
1.0
4.0319999997000000e+00 0.0000000000000000e+00 0.0000000000000000e+00 
0.0000000000000000e+00 4.0319999997000000e+00 0.0000000000000000e+00 
-0.0000000000000000e+00 -0.0000000000000000e+00 4.0319999997000000e+00 
Al 
4 
Cartesian
   4.0319999997    2.0159999999    2.0159999999
   2.0159999999    2.0159999999    4.0319999997
   2.0159999999    4.0319999997    2.0159999999
   4.0319999997    4.0319999997    4.0319999997
