Al4 
1.0
4.0465838855090563e+00 0.0000000000000000e+00 0.0000000000000000e+00 
0.0000000000000000e+00 4.0465838855090563e+00 0.0000000000000000e+00 
0.0000000000000000e+00 -8.0931677700181143e-02 4.0457744878090551e+00 
Al 
4 
Cartesian
   0.0000000000    0.0000000000    0.0000000000
   0.0000000000    1.9828261039    2.0228872439
   2.0232919428   -0.0404658389    2.0228872439
   2.0232919428    2.0232919428    0.0000000000
