Al16 
1.0
2.8510545414999999e+00 0.0000000000000000e+00 0.0000000000000000e+00 
-0.0000000000000000e+00 6.9836288555000001e+00 0.0000000000000000e+00 
1.0000000000000000e-02 -2.3278762851999999e+00 2.6336913712099999e+01 
Al 
16 
Cartesian
   1.4322460208    0.2909845356   17.6951139003
   0.0057812500    0.2909845356   15.2260282398
   0.0076562500    0.2909845356   20.1641995608
   2.8605857915    0.2909845356   25.1023708818
   1.4347460208   -2.0368917496   24.2793423283
   1.4341210207    0.2909845356   22.6332852213
   0.0051562500    2.6188608208   13.5799711328
   1.4309960207    4.9467371060   14.4029996863
   0.0064062500    4.9467371060   16.8720853468
   0.0070312500    2.6188608208   18.5181424538
   1.4316210207    2.6188608208   16.0490567933
   0.0082812500    4.9467371060   21.8102566678
   1.4334960208    2.6188608208   20.9872281143
   1.4328710207    4.9467371060   19.3411710073
   2.8599607915    2.6188608208   23.4563137748
   1.4353710207    2.6188608208   25.9253994353
