Al16
1.0
   2.8510545414982351    0.0000000000000000    0.0000000000000002
  -0.0000000000000004    6.9565078643001685   -0.6148742355280263
   0.0000000000000000    0.0000000000000000   26.4395921277050583
Al
16
direct
   1.0000000000000000    0.6718749999949418    0.8906249999993930 Al
   0.0000000000000000    0.3593749999949418    0.9531249999993930 Al
   0.4999999999999998    0.0156249999973696    0.9218750000002023 Al
   0.5000000000000000    0.7031249999973699    0.9843750000002023 Al
   1.0000000000000000    0.2968749999949417    0.7656249999993930 Al
   0.0000000000000000    0.9843749999949418    0.8281249999993930 Al
   0.4999999999999998    0.6406249999973694    0.7968750000002023 Al
   0.4999999999999999    0.3281249999973698    0.8593750000002023 Al
   1.0000000000000000    0.9218749999949416    0.6406249999993930 Al
   0.0000000000000000    0.6093749999949418    0.7031249999993930 Al
   0.4999999999999998    0.2656249999973694    0.6718750000002023 Al
   0.4999999999999999    0.9531249999973697    0.7343750000002023 Al
   1.0000000000000000    0.5468749999949416    0.5156249999993930 Al
   0.0000000000000000    0.2343749999949416    0.5781249999993930 Al
   0.4999999999999998    0.8906249999973694    0.5468750000002023 Al
   0.4999999999999999    0.5781249999973697    0.6093750000002023 Al
