Al8 
1.0
2.8510545414999999e+00 0.0000000000000000e+00 0.0000000000000000e+00 
-0.0000000000000000e+00 4.0319999997000000e+00 0.0000000000000000e+00 
1.0000000000000000e-02 0.0000000000000000e+00 2.2808436331999999e+01 
Al 
8 
Cartesian
   2.1392284061    0.0000000000    2.1382909061
   2.1404784061    0.0000000000    4.9893454476
   2.1417284061    0.0000000000    7.8403999891
   2.1429784061    0.0000000000   10.6914545306
   0.7130761354    2.0159999999    0.7127636354
   0.7143261354    2.0159999999    3.5638181769
   0.7155761354    2.0159999999    6.4148727184
   0.7168261354    2.0159999999    9.2659272599
