Al8
1.0
   2.8510545414982351    0.0000000000000000    0.0000000000000002
  -0.0000000000000002    4.0319999996522107    0.0000000000000002
0.01 0.0 22.80843633198588
Al
8
Direct
   0.7499999999902881    0.0000000000000000    0.0937499999995953 Al
   0.2499999999902882    0.5000000000064746    0.0312499999995953 Al
   0.7499999999902878    0.0000000000000000    0.2187499999995953 Al
   0.2499999999902882    0.5000000000064746    0.1562499999995953 Al
   0.7499999999902878    0.0000000000000000    0.3437499999995953 Al
   0.2499999999902878    0.5000000000064746    0.2812499999995953 Al
   0.7499999999902878    0.0000000000000000    0.4687499999995953 Al
   0.2499999999902878    0.5000000000064746    0.4062499999995953 Al
