INPUT_PARAMETERS
#Parameters (5.Mixing)
calculation     scf
ntype           1
symmetry        1
#pseudo_type upf201
ecutwfc         90
scf_thr         1e-8
scf_nmax        100
basis_type      pw
smearing_method gauss
smearing_sigma  0.002
mixing_type     pulay
mixing_beta     0.3
ks_solver       cg

device          gpu
precision       double
