ATOMIC_SPECIES
Al 26.9815385 Al_ONCV_PBE-1.0.upf

NUMERICAL_ORBITAL
Al_gga_9au_100Ry_4s4p1d.orb

LATTICE_CONSTANT
1.889726

LATTICE_VECTORS
20.000000000      0.0000000000      0.0000000000      
0.0000000000      20.000000000      0.0000000000      
0.0000000000      0.0000000000      20.000000000      

ATOMIC_POSITIONS
Direct

Al
0.0000000000
1
0.0000000000 0.0000000000 0.0000000000 1 1 1

