Al4 
1.0
4.3001370418821923e+00 -0.0000000000000000e+00 0.0000000000000000e+00 
-0.0000000000000000e+00 4.3001370418821923e+00 -0.0000000000000000e+00 
0.0000000000000000e+00 -0.0000000000000000e+00 4.3001370418821923e+00 
Al 
4 
Cartesian
   0.0000000000    0.0000000000    0.0000000000
   0.0000000000    2.1500685209    2.1500685209
   2.1500685209    0.0000000000    2.1500685209
   2.1500685209    2.1500685209    0.0000000000
