Al4 
1.0
4.0721203908000003e+00 0.0000000000000000e+00 0.0000000000000000e+00 
0.0000000000000000e+00 4.0319999997000000e+00 0.0000000000000000e+00 
0.0000000000000000e+00 0.0000000000000000e+00 4.0319999997000000e+00 
Al 
4 
Cartesian
   0.0000000000    2.0159999999    2.0159999999
   0.0000000000    4.0319999997    4.0319999997
   2.0360601954    4.0319999997    2.0159999999
   2.0360601954    2.0159999999    4.0319999997
