Al4 
1.0
4.0319999997000000e+00 0.0000000000000000e+00 0.0000000000000000e+00 
-4.0320000000000002e-02 4.0317983946000000e+00 0.0000000000000000e+00 
0.0000000000000000e+00 0.0000000000000000e+00 4.0319999997000000e+00 
Al 
4 
Cartesian
   2.0159999998    0.0000000000    2.0159999999
   1.9958399999    2.0158991973    4.0319999997
   4.0118399997    2.0158991973    2.0159999999
   3.9916799997    4.0317983946    4.0319999997
