Al5 
1.0
2.8613669060994238e+00 8.6769791975240761e-19 1.8429115722523777e-17 
1.4306834530497121e+00 2.4780164302301828e+00 1.8429115722523777e-17 
1.4406647788971019e+00 8.2598389351806156e-01 2.3362352490299433e+01 
Al 
5 
Cartesian
   2.8618659724    1.6520098744    1.1681176245
   4.2935475581    2.4780131928    3.5043528735
   1.4331787846    0.8260000810    5.8405881226
   2.8648603702    1.6520033994    8.1768233716
   4.2965419558    2.4780067178   10.5130586206
