Al5
1.0
   2.8560235458697334    0.0000000000000000    0.1747858025088442
   1.4226634142347363    2.4764691204132321    0.1747858025088442
   0.0000000000000000    0.0000000000000000   23.4212975361850120
Al
5
direct
   0.6500000000114516    0.6500000000114519    0.0499999999995758 Al
   0.9500000000114515    0.9500000000114519    0.1499999999995758 Al
   0.2500000000114513    0.2500000000114522    0.2499999999995757 Al
   0.5500000000114507    0.5500000000114520    0.3499999999995758 Al
   0.8500000000114509    0.8500000000114523    0.4499999999995757 Al
