ATOMIC_SPECIES
Al 26.982 ./pp_orb/Al_ONCV_PBE-1.0.upf

NUMERICAL_ORBITAL
./pp_orb/Al_gga_9au_100Ry_4s4p1d.orb

LATTICE_CONSTANT
1.8897261246257702

LATTICE_VECTORS
2.861366906099424 8.676979197524076e-19 1.8429115722523777e-17 
1.4306834530497121 2.478016430230183 1.8429115722523777e-17 
1.4406647788971019 0.8259838935180616 23.362352490299433 

ATOMIC_POSITIONS
Cartesian    # Cartesian(Unit is LATTICE_CONSTANT)
Al
0.0
5
2.861865972440 1.652009874354 1.168117624505 1 1 1
4.293547558075 2.478013192774 3.504352873535 1 1 1
1.433178784560 0.826000080965 5.840588122565 1 1 1
2.864860370195 1.652003399386 8.176823371595 1 1 1
4.296541955829 2.478006717807 10.513058620625 1 1 1
