Al4 
1.0
4.3037660223999996e+00 0.0000000000000000e+00 0.0000000000000000e+00 
0.0000000000000000e+00 4.3037660223999996e+00 0.0000000000000000e+00 
0.0000000000000000e+00 0.0000000000000000e+00 4.3037660223999996e+00 
Al 
4 
Cartesian
   0.0000000000    0.0000000000    0.0000000000
   2.1518830112    0.0000000000    2.1518830112
   2.1518830112    2.1518830112    0.0000000000
   0.0000000000    2.1518830112    2.1518830112
