Al4 
1.0
4.3037660224116516e+00 0.0000000000000000e+00 0.0000000000000000e+00
1.3136651655806967e-16 4.3037660224116516e+00 0.0000000000000000e+00
1.4011771997212270e-16 1.5565353374215409e-16 4.3037660224116516e+00
Al 
4 
Cartesian
0.0000000000000000e+00 0.0000000000000000e+00 0.0000000000000000e+00
0.0000000000000000e+00 2.1518830112252938e+00 2.1518830112252938e+00
2.1518830112252938e+00 2.1518830112252938e+00 0.0000000000000000e+00
2.1518830112252938e+00 0.0000000000000000e+00 2.1518830112252938e+00
