Al16 
1.0
2.8510545414999999e+00 0.0000000000000000e+00 0.0000000000000000e+00 
-0.0000000000000000e+00 8.5531636244999998e+00 0.0000000000000000e+00 
1.0000000000000000e-02 0.0000000000000000e+00 2.4191999997900002e+01 
Al 
16 
Cartesian
   2.4956449458    0.8315573845    2.3519994622
   1.0692843421    2.2570857957    0.3360002688
   1.0703954531    3.2074363592    3.0239999997
   2.4967560538    1.7819062374    5.0399919356
   1.0715065631    4.1577869227    5.7119973115
   2.4978671638    2.7322568009    7.7279892473
   1.0720621231    0.3563821028    7.0560080634
   1.0731732331    1.3067352322    9.7440053752
   2.4989782838    3.6826159175   10.4160107511
   2.4950893908    4.6329664810    1.0080008063
   1.0698398971    7.0088386131    1.6799989247
   2.4962005038    5.5833170445    3.6960053757
   1.0709510131    7.9591977298    4.3680107516
   2.4973116138    6.5336676080    6.3840026874
   2.4984227238    7.4840181714    9.0719999992
   1.0726176731    5.1081374862    8.3999946233
