Al16
1.0
   2.8510545414982351    0.0000000000000000    0.0000000000000008
  -0.0000000000000005    8.5531636244947062    0.0000000000000005
0.01 0.0 24.191999997913268
Al
16
Direct
   0.8750000000113305    0.0972222222227618    0.0972222222227618 Al
   0.8750000000113305    0.5416666666672062    0.0416666666672062 Al
   0.3750000000113306    0.8194444444478616    0.0694444444446243 Al
   0.3750000000113307    0.2638888888923060    0.0138888888890688 Al
   0.8750000000113303    0.2083333333338729    0.2083333333338729 Al
   0.8750000000113303    0.6527777777783172    0.1527777777783173 Al
   0.3750000000113304    0.9305555555589726    0.1805555555557354 Al
   0.3750000000113306    0.3750000000034170    0.1250000000001799 Al
   0.8750000000113300    0.3194444444449840    0.3194444444449839 Al
   0.8750000000113298    0.7638888888894284    0.2638888888894284 Al
   0.3750000000113298    0.0416666666700837    0.2916666666668464 Al
   0.3750000000113304    0.4861111111145282    0.2361111111112909 Al
   0.8750000000113300    0.4305555555560951    0.4305555555560950 Al
   0.8750000000113300    0.8750000000005396    0.3750000000005395 Al
   0.3750000000113300    0.1527777777811950    0.4027777777779576 Al
   0.3750000000113303    0.5972222222256394    0.3472222222224021 Al
