Automatic kpoint scheme
0
Monkhorst
23 23 23
