Al4 
1.0
4.1672487065999997e+00 0.0000000000000000e+00 0.0000000000000000e+00 
-0.0000000000000000e+00 4.1672487065999997e+00 0.0000000000000000e+00 
-0.0000000000000000e+00 -0.0000000000000000e+00 4.1672487065999997e+00 
Al 
4 
Cartesian
   0.0000000000    0.0000000000    0.0000000000
   2.0836243533    0.0000000000    2.0836243533
   2.0836243533    2.0836243533    0.0000000000
   0.0000000000    2.0836243533    2.0836243533
