Al4 
1.0
4.1672487066010611e+00 0.0000000000000000e+00 0.0000000000000000e+00
-2.9772123116844385e-18 4.1672487066010611e+00 0.0000000000000000e+00
-3.3546054216162701e-19 -2.4041338854916605e-18 4.1672487066010611e+00
Al 
4 
Cartesian
0.0000000000000000e+00 0.0000000000000000e+00 0.0000000000000000e+00
-0.0000000000000000e+00 2.0836243533489278e+00 2.0836243533489278e+00
2.0836243533489278e+00 2.0836243533489278e+00 0.0000000000000000e+00
2.0836243533489278e+00 0.0000000000000000e+00 2.0836243533489278e+00
