Al4 
1.0
3.5082674125000000e+00 0.0000000000000000e+00 0.0000000000000000e+00 
0.0000000000000000e+00 3.5082674125000000e+00 0.0000000000000000e+00 
0.0000000000000000e+00 0.0000000000000000e+00 3.5082674125000000e+00 
Al 
4 
Cartesian
   0.0000000000    0.0000000000    0.0000000000
   1.7541337062    0.0000000000    1.7541337062
   1.7541337062    1.7541337062    0.0000000000
   0.0000000000    1.7541337062    1.7541337062
