Al4 
1.0
3.5082674124747930e+00 0.0000000000000000e+00 0.0000000000000000e+00
1.0708501966209454e-16 3.5082674124747930e+00 0.0000000000000000e+00
1.1421866995757610e-16 1.2688287820957038e-16 3.5082674124747930e+00
Al 
4 
Cartesian
0.0000000000000000e+00 0.0000000000000000e+00 0.0000000000000000e+00
0.0000000000000000e+00 1.7541337062532660e+00 1.7541337062532660e+00
1.7541337062532660e+00 1.7541337062532660e+00 0.0000000000000000e+00
1.7541337062532660e+00 0.0000000000000000e+00 1.7541337062532660e+00
