Al16 
1.0
2.8545447840999998e+00 0.0000000000000000e+00 0.0000000000000000e+00 
-0.0000000000000000e+00 8.5636343523999994e+00 0.0000000000000000e+00 
1.0000000000000000e-02 0.0000000000000000e+00 2.4221615688600000e+01 
Al 
16 
Cartesian
   2.4986989081    0.8325753717    2.3548787648
   1.0705931830    2.2598489056    0.3364115981
   1.0717042940    3.2113628821    3.0277019611
   2.4998100161    1.7840876355    5.0461618613
   1.0728154040    4.1628768587    5.7189899019
   2.5009211261    2.7356016121    7.7374498020
   1.0733709640    0.3568183835    7.0646459830
   1.0744820740    1.3083349291    9.7559339238
   2.5020322461    3.6871241522   10.4287619644
   2.4981433531    4.6386381288    1.0092347944
   1.0711487380    7.0174187883    1.6820555685
   2.4992544661    5.5901521053    3.7005300017
   1.0722598540    7.9689413284    4.3733580423
   2.5003655761    6.5416660818    6.3918179424
   2.5014766861    7.4931800583    9.0831058832
   1.0739265140    5.1143908352    8.4102778426
