Al16
1.0
   2.8545447841216616    0.0000000000000000    0.0000000000000002
  -0.0000000000000005    8.5636343523649838    0.0000000000000005
0.01 0.0 24.221615688637392
Al
16
Direct
   0.8749999999796759    0.0972222222212544    0.0972222222212544 Al
   0.8749999999796761    0.5416666666656988    0.0416666666656989 Al
   0.3749999999796760    0.8194444444383150    0.0694444444441218 Al
   0.3749999999796758    0.2638888888827594    0.0138888888885663 Al
   0.8749999999796763    0.2083333333323656    0.2083333333323655 Al
   0.8749999999796760    0.6527777777768100    0.1527777777768100 Al
   0.3749999999796760    0.9305555555494261    0.1805555555552329 Al
   0.3749999999796759    0.3749999999938705    0.1249999999996774 Al
   0.8749999999796758    0.3194444444434766    0.3194444444434766 Al
   0.8749999999796760    0.7638888888879211    0.2638888888879211 Al
   0.3749999999796758    0.0416666666605372    0.2916666666663441 Al
   0.3749999999796758    0.4861111111049816    0.2361111111107885 Al
   0.8749999999796763    0.4305555555545878    0.4305555555545877 Al
   0.8749999999796758    0.8749999999990322    0.3749999999990322 Al
   0.3749999999796763    0.1527777777716483    0.4027777777774552 Al
   0.3749999999796754    0.5972222222160927    0.3472222222218995 Al
