Al4 
1.0
4.0369359481000000e+00 0.0000000000000000e+00 0.0000000000000000e+00 
0.0000000000000000e+00 4.0369359481000000e+00 0.0000000000000000e+00 
0.0000000000000000e+00 4.0369359500000000e-02 4.0367340963000000e+00 
Al 
4 
Cartesian
   0.0000000000    4.0369359481    0.0000000000
   0.0000000000    2.0386526538    2.0183670482
   2.0184679741    2.0184679741    0.0000000000
   2.0184679741    4.0571206278    2.0183670482
