Al4 
1.0
3.5960102188000000e+00 0.0000000000000000e+00 0.0000000000000000e+00 
0.0000000000000000e+00 3.5960102188000000e+00 0.0000000000000000e+00 
0.0000000000000000e+00 0.0000000000000000e+00 3.5960102188000000e+00 
Al 
4 
Cartesian
   0.0000000000    0.0000000000    0.0000000000
   1.7980051094    0.0000000000    1.7980051094
   1.7980051094    1.7980051094    0.0000000000
   0.0000000000    1.7980051094    1.7980051094
