Al4 
1.0
3.5960102187878458e+00 0.0000000000000000e+00 0.0000000000000000e+00
1.0976324769734359e-16 3.5960102187878458e+00 0.0000000000000000e+00
1.1707531269803143e-16 1.3005625654658022e-16 3.5960102187878458e+00
Al 
4 
Cartesian
0.0000000000000000e+00 0.0000000000000000e+00 0.0000000000000000e+00
0.0000000000000000e+00 1.7980051094101894e+00 1.7980051094101894e+00
1.7980051094101894e+00 1.7980051094101894e+00 0.0000000000000000e+00
1.7980051094101894e+00 0.0000000000000000e+00 1.7980051094101894e+00
