Al4 
1.0
3.7429772351000001e+00 0.0000000000000000e+00 0.0000000000000000e+00 
0.0000000000000000e+00 3.7429772351000001e+00 0.0000000000000000e+00 
-0.0000000000000000e+00 -0.0000000000000000e+00 3.7429772351000001e+00 
Al 
4 
Cartesian
   1.8714886176    3.7429772351    1.8714886176
   1.8714886176    1.8714886176    3.7429772351
   3.7429772351    1.8714886176    1.8714886176
   3.7429772351    3.7429772351    3.7429772351
