Al4 
1.0
3.7429772351024861e+00 0.0000000000000000e+00 0.0000000000000000e+00
1.3445352874129604e-18 3.7429772351024861e+00 0.0000000000000000e+00
-4.8434385929423851e-18 -7.4303599334554685e-18 3.7429772351024861e+00
Al 
4 
Cartesian
-0.0000000000000000e+00 0.0000000000000000e+00 0.0000000000000000e+00
-0.0000000000000000e+00 1.8714886175270089e+00 1.8714886175270089e+00
1.8714886175270089e+00 1.8714886175270089e+00 0.0000000000000000e+00
1.8714886175270089e+00 -0.0000000000000000e+00 1.8714886175270089e+00
