Al4 
1.0
4.3486574239999998e+00 0.0000000000000000e+00 0.0000000000000000e+00 
-0.0000000000000000e+00 4.3486574239999998e+00 0.0000000000000000e+00 
-0.0000000000000000e+00 -0.0000000000000000e+00 4.3486574239999998e+00 
Al 
4 
Cartesian
   0.0000000000    0.0000000000    0.0000000000
   0.0000000000    2.1743287120    2.1743287120
   2.1743287120    2.1743287120    0.0000000000
   2.1743287120    0.0000000000    2.1743287120
