Al4 
1.0
4.3486574240184099e+00 0.0000000000000000e+00 0.0000000000000000e+00
-3.1068163514160462e-18 4.3486574240184099e+00 0.0000000000000000e+00
-3.5006381424406165e-19 -2.5087906687491090e-18 4.3486574240184099e+00
Al 
4 
Cartesian
0.0000000000000000e+00 0.0000000000000000e+00 0.0000000000000000e+00
-0.0000000000000000e+00 2.1743287120597090e+00 2.1743287120597090e+00
2.1743287120597090e+00 2.1743287120597090e+00 0.0000000000000000e+00
2.1743287120597090e+00 0.0000000000000000e+00 2.1743287120597090e+00
