Al4 
1.0
4.0499988870000001e+00 0.0000000000000000e+00 0.0000000000000000e+00 
0.0000000000000000e+00 4.0701985079999998e+00 0.0000000000000000e+00 
0.0000000000000000e+00 0.0000000000000000e+00 4.0499988870000001e+00 
Al 
4 
Cartesian
   0.0000000000    0.0000000000    0.0000000000
   2.0249994435    0.0000000000    2.0249994435
   2.0249994435    2.0350992540    0.0000000000
   0.0000000000    2.0350992540    2.0249994435
