Al16                                    
   1.00000000000000     
     2.8559545747850481    0.0000000000000000    0.0000000000000002
    -0.0000000000000004    6.9684638334333062   -0.6159310038842388
     0.0100000000000000    0.0000000000000000   26.4850331670221877
   Al
    16
Direct
  0.0000000000000000  0.6718750000000000  0.8906250000000000
  0.0000000000000000  0.3593750000000000  0.9531250000000000
  0.5000000000000000  0.0156250000000000  0.9218750000000000
  0.5000000000000000  0.7031250000000000  0.9843750000000000
  0.0000000000000000  0.2968750000000000  0.7656250000000000
  0.0000000000000000  0.9843750000000000  0.8281250000000000
  0.5000000000000000  0.6406250000000000  0.7968750000000000
  0.5000000000000000  0.3281250000000000  0.8593750000000000
  0.0000000000000000  0.9218750000000000  0.6406250000000000
  0.0000000000000000  0.6093750000000000  0.7031250000000000
  0.5000000000000000  0.2656250000000000  0.6718750000000000
  0.5000000000000000  0.9531250000000000  0.7343750000000000
  0.0000000000000000  0.5468750000000000  0.5156250000000000
  0.0000000000000000  0.2343750000000000  0.5781250000000000
  0.5000000000000000  0.8906250000000000  0.5468750000000000
  0.5000000000000000  0.5781250000000000  0.6093750000000000
 
  0.00000000E+00  0.00000000E+00  0.00000000E+00
  0.00000000E+00  0.00000000E+00  0.00000000E+00
  0.00000000E+00  0.00000000E+00  0.00000000E+00
  0.00000000E+00  0.00000000E+00  0.00000000E+00
  0.00000000E+00  0.00000000E+00  0.00000000E+00
  0.00000000E+00  0.00000000E+00  0.00000000E+00
  0.00000000E+00  0.00000000E+00  0.00000000E+00
  0.00000000E+00  0.00000000E+00  0.00000000E+00
  0.00000000E+00  0.00000000E+00  0.00000000E+00
  0.00000000E+00  0.00000000E+00  0.00000000E+00
  0.00000000E+00  0.00000000E+00  0.00000000E+00
  0.00000000E+00  0.00000000E+00  0.00000000E+00
  0.00000000E+00  0.00000000E+00  0.00000000E+00
  0.00000000E+00  0.00000000E+00  0.00000000E+00
  0.00000000E+00  0.00000000E+00  0.00000000E+00
  0.00000000E+00  0.00000000E+00  0.00000000E+00
