Automatic kpoint scheme
0
Monkhorst
28 12 3
