Al4 
1.0
3.8240611992000000e+00 0.0000000000000000e+00 0.0000000000000000e+00 
-0.0000000000000000e+00 3.8240611992000000e+00 0.0000000000000000e+00 
-0.0000000000000000e+00 -0.0000000000000000e+00 3.8240611992000000e+00 
Al 
4 
Cartesian
   0.0000000000    0.0000000000    0.0000000000
   0.0000000000    1.9120305996    1.9120305996
   1.9120305996    1.9120305996    0.0000000000
   1.9120305996    0.0000000000    1.9120305996
