Al4 
1.0
4.0319999997000000e+00 0.0000000000000000e+00 0.0000000000000000e+00 
-8.0640000000000003e-02 4.0311935190000003e+00 0.0000000000000000e+00 
0.0000000000000000e+00 0.0000000000000000e+00 4.0319999997000000e+00 
Al 
4 
Cartesian
   2.0159999998    0.0000000000    2.0159999999
   1.9756799999    2.0155967595    4.0319999997
   3.9916799997    2.0155967595    2.0159999999
   3.9513599997    4.0311935190    4.0319999997
