Al4 
1.0
4.2898845784999997e+00 0.0000000000000000e+00 0.0000000000000000e+00 
-0.0000000000000000e+00 4.2898845784999997e+00 0.0000000000000000e+00 
-0.0000000000000000e+00 -0.0000000000000000e+00 4.2898845784999997e+00 
Al 
4 
Cartesian
   0.0000000000    0.0000000000    0.0000000000
   2.1449422892    0.0000000000    2.1449422892
   2.1449422892    2.1449422892    0.0000000000
   0.0000000000    2.1449422892    2.1449422892
