Al4 
1.0
3.9102309330277398e+00 0.0000000000000000e+00 0.0000000000000000e+00
1.1935440122314632e-16 3.9102309330277398e+00 0.0000000000000000e+00
1.2730539719101564e-16 1.4142062075498024e-16 3.9102309330277398e+00
Al 
4 
Cartesian
0.0000000000000000e+00 0.0000000000000000e+00 0.0000000000000000e+00
0.0000000000000000e+00 1.9551154665315578e+00 1.9551154665315578e+00
1.9551154665315578e+00 1.9551154665315578e+00 0.0000000000000000e+00
1.9551154665315578e+00 0.0000000000000000e+00 1.9551154665315578e+00
