Al4                                     
   1.0000000000000000     
     4.0389296931825003    0.0000000000000000    0.0000000000000000
    -0.0000000000000002    4.0389296931825003    0.0000000000000000
     0.0000000000000002   -0.0807785938636498    4.0381218264491103
   Al
     4
Direct
  0.0000000000000000  0.0000000000000000  0.0000000000000000
  0.0000000000000000  0.5000000000000000  0.5000000000000000
  0.5000000000000000  0.0000000000000000  0.5000000000000000
  0.5000000000000000  0.5000000000000000  0.0000000000000000

  0.00000000E+00  0.00000000E+00  0.00000000E+00
  0.00000000E+00  0.00000000E+00  0.00000000E+00
  0.00000000E+00  0.00000000E+00  0.00000000E+00
  0.00000000E+00  0.00000000E+00  0.00000000E+00
