Al4 
1.0
3.5844115831020833e+00 0.0000000000000000e+00 0.0000000000000000e+00
-2.5608153116591612e-18 3.5844115831020833e+00 0.0000000000000000e+00
-2.8854257032779287e-19 -2.0678884206825160e-18 3.5844115831020833e+00
Al 
4 
Cartesian
0.0000000000000000e+00 0.0000000000000000e+00 0.0000000000000000e+00
-0.0000000000000000e+00 1.7922057915926699e+00 1.7922057915926699e+00
1.7922057915926699e+00 1.7922057915926699e+00 0.0000000000000000e+00
1.7922057915926699e+00 0.0000000000000000e+00 1.7922057915926699e+00
