Al4 
1.0
4.4004961041000001e+00 0.0000000000000000e+00 0.0000000000000000e+00 
0.0000000000000000e+00 4.4004961041000001e+00 0.0000000000000000e+00 
-0.0000000000000000e+00 -0.0000000000000000e+00 4.4004961041000001e+00 
Al 
4 
Cartesian
   2.2002480521    4.4004961041    2.2002480521
   2.2002480521    2.2002480521    4.4004961041
   4.4004961041    2.2002480521    2.2002480521
   4.4004961041    4.4004961041    4.4004961041
