Al4 
1.0
4.4004961041228041e+00 0.0000000000000000e+00 0.0000000000000000e+00
1.5807262300793461e-18 4.4004961041228041e+00 0.0000000000000000e+00
-5.6942725857154244e-18 -8.7356315268921719e-18 4.4004961041228041e+00
Al 
4 
Cartesian
-0.0000000000000000e+00 0.0000000000000000e+00 0.0000000000000000e+00
-0.0000000000000000e+00 2.2002480520329111e+00 2.2002480520329111e+00
2.2002480520329111e+00 2.2002480520329111e+00 0.0000000000000000e+00
2.2002480520329111e+00 -0.0000000000000000e+00 2.2002480520329111e+00
