Al4 
1.0
3.5844115831000001e+00 0.0000000000000000e+00 0.0000000000000000e+00 
-0.0000000000000000e+00 3.5844115831000001e+00 0.0000000000000000e+00 
-0.0000000000000000e+00 -0.0000000000000000e+00 3.5844115831000001e+00 
Al 
4 
Cartesian
   0.0000000000    0.0000000000    0.0000000000
   0.0000000000    1.7922057916    1.7922057916
   1.7922057916    1.7922057916    0.0000000000
   1.7922057916    0.0000000000    1.7922057916
