Al4 
1.0
3.6633151148000000e+00 0.0000000000000000e+00 0.0000000000000000e+00 
0.0000000000000000e+00 3.6633151148000000e+00 0.0000000000000000e+00 
-0.0000000000000000e+00 -0.0000000000000000e+00 3.6633151148000000e+00 
Al 
4 
Cartesian
   0.0000000000    0.0000000000    0.0000000000
   1.8316575574    0.0000000000    1.8316575574
   1.8316575574    1.8316575574    0.0000000000
   0.0000000000    1.8316575574    1.8316575574
