Al4 
1.0
3.6633151148336061e+00 0.0000000000000000e+00 0.0000000000000000e+00
1.3159194222756691e-18 3.6633151148336061e+00 0.0000000000000000e+00
-4.7403552548746486e-18 -7.2722189164306107e-18 3.6633151148336061e+00
Al 
4 
Cartesian
-0.0000000000000000e+00 0.0000000000000000e+00 0.0000000000000000e+00
-0.0000000000000000e+00 1.8316575573930847e+00 1.8316575573930847e+00
1.8316575573930847e+00 1.8316575573930847e+00 0.0000000000000000e+00
1.8316575573930847e+00 -0.0000000000000000e+00 1.8316575573930847e+00
