Al4 
1.0
4.3433403346999997e+00 0.0000000000000000e+00 0.0000000000000000e+00 
0.0000000000000000e+00 4.3433403346999997e+00 0.0000000000000000e+00 
-0.0000000000000000e+00 -0.0000000000000000e+00 4.3433403346999997e+00 
Al 
4 
Cartesian
   4.3433403347    2.1716701673    2.1716701673
   2.1716701673    2.1716701673    4.3433403347
   2.1716701673    4.3433403347    2.1716701673
   4.3433403347    4.3433403347    4.3433403347
