Al4 
1.0
4.3433403347296329e+00 0.0000000000000000e+00 0.0000000000000000e+00
1.5601949941135863e-18 4.3433403347296329e+00 0.0000000000000000e+00
-5.6203126223226410e-18 -8.6221689242126737e-18 4.3433403347296329e+00
Al 
4 
Cartesian
-0.0000000000000000e+00 0.0000000000000000e+00 0.0000000000000000e+00
-0.0000000000000000e+00 2.1716701673366954e+00 2.1716701673366954e+00
2.1716701673366954e+00 2.1716701673366954e+00 0.0000000000000000e+00
2.1716701673366954e+00 -0.0000000000000000e+00 2.1716701673366954e+00
