Al4 
1.0
4.0465838855090563e+00 0.0000000000000000e+00 0.0000000000000000e+00 
4.0465838900090575e-02 4.0463815513090564e+00 0.0000000000000000e+00 
0.0000000000000000e+00 0.0000000000000000e+00 4.0465838855090563e+00 
Al 
4 
Cartesian
   0.0000000000    0.0000000000    0.0000000000
   0.0202329195    2.0231907757    2.0232919428
   2.0232919428    0.0000000000    2.0232919428
   2.0435248622    2.0231907757    0.0000000000
