Al4
1.0
   4.0389296931825003    0.0000000000000000    0.0000000000000000
  -0.0000000000000002    4.0389296931825003    0.0000000000000000
   0.0000000000000002    0.0000000000000002    4.0186843040734832
Al
4
direct
   0.0000000000000000    0.0000000000000000    0.0000000000000000 Al
   0.0000000000000000    0.5000000000000000    0.5000000000000000 Al
   0.5000000000000000   -0.0000000000000000    0.5000000000000000 Al
   0.5000000000000000    0.5000000000000000    0.0000000000000000 Al
