Al4 
1.0
4.4164128533882376e+00 -0.0000000000000000e+00 0.0000000000000000e+00 
-0.0000000000000000e+00 4.4164128533882376e+00 -0.0000000000000000e+00 
0.0000000000000000e+00 -0.0000000000000000e+00 4.4164128533882376e+00 
Al 
4 
Cartesian
   0.0000000000    0.0000000000    0.0000000000
   0.0000000000    2.2082064267    2.2082064267
   2.2082064267    0.0000000000    2.2082064267
   2.2082064267    2.2082064267    0.0000000000
