Al5 
1.0
2.8637816768000000e+00 0.0000000000000000e+00 0.0000000000000000e+00 
1.4318908384000000e+00 2.4801076830000000e+00 0.0000000000000000e+00 
1.4418721642000001e+00 8.2668097780000005e-01 2.3382069010300000e+01 
Al 
5 
Cartesian
   2.8642807431    1.6534040428    1.1691034505
   4.2971697141    2.4801044455    3.5073103515
   1.4343861699    0.8266971652    5.8455172526
   2.8672751408    1.6533975679    8.1837241536
   4.3001641118    2.4800979706   10.5219310546
