Al5
1.0
   2.8584338071604685    0.0000000000000000    0.1749333081043657
   1.4238640312821811    2.4785590673491615    0.1749333081043657
   0.0000000000000000    0.0000000000000000   23.4410632859848995
Al
5
direct
   0.6500000000061068    0.6499999999880128    0.0499999999997738 Al
   0.9500000000061071    0.9499999999880124    0.1499999999997738 Al
   0.2500000000061071    0.2499999999880123    0.2499999999997738 Al
   0.5500000000061074    0.5499999999880121    0.3499999999997738 Al
   0.8500000000061076    0.8499999999880110    0.4499999999997738 Al
