Al4 
1.0
4.3627290483000003e+00 0.0000000000000000e+00 0.0000000000000000e+00 
0.0000000000000000e+00 4.3627290483000003e+00 0.0000000000000000e+00 
0.0000000000000000e+00 0.0000000000000000e+00 4.3627290483000003e+00 
Al 
4 
Cartesian
   0.0000000000    0.0000000000    0.0000000000
   2.1813645242    0.0000000000    2.1813645242
   2.1813645242    2.1813645242    0.0000000000
   0.0000000000    2.1813645242    2.1813645242
