Al4 
1.0
4.3627290483321906e+00 0.0000000000000000e+00 0.0000000000000000e+00
1.3316628152683625e-16 4.3627290483321906e+00 0.0000000000000000e+00
1.4203737933827324e-16 1.5778603892409686e-16 4.3627290483321906e+00
Al 
4 
Cartesian
0.0000000000000000e+00 0.0000000000000000e+00 0.0000000000000000e+00
0.0000000000000000e+00 2.1813645241858297e+00 2.1813645241858297e+00
2.1813645241858297e+00 2.1813645241858297e+00 0.0000000000000000e+00
2.1813645241858297e+00 0.0000000000000000e+00 2.1813645241858297e+00
