Al4 
1.0
4.4723227488566160e+00 -0.0000000000000000e+00 0.0000000000000000e+00 
-0.0000000000000000e+00 4.4723227488566160e+00 -0.0000000000000000e+00 
0.0000000000000000e+00 -0.0000000000000000e+00 4.4723227488566160e+00 
Al 
4 
Cartesian
   0.0000000000    0.0000000000    0.0000000000
   0.0000000000    2.2361613744    2.2361613744
   2.2361613744    0.0000000000    2.2361613744
   2.2361613744    2.2361613744    0.0000000000
