Al4 
1.0
3.9813415744000000e+00 0.0000000000000000e+00 0.0000000000000000e+00 
0.0000000000000000e+00 3.9813415744000000e+00 0.0000000000000000e+00 
0.0000000000000000e+00 0.0000000000000000e+00 3.9813415744000000e+00 
Al 
4 
Cartesian
   0.0000000000    0.0000000000    0.0000000000
   1.9906707872    0.0000000000    1.9906707872
   1.9906707872    1.9906707872    0.0000000000
   0.0000000000    1.9906707872    1.9906707872
