Al4 
1.0
3.9813415744228449e+00 0.0000000000000000e+00 0.0000000000000000e+00
1.2152495538469677e-16 3.9813415744228449e+00 0.0000000000000000e+00
1.2962054650121305e-16 1.4399246656680641e-16 3.9813415744228449e+00
Al 
4 
Cartesian
0.0000000000000000e+00 0.0000000000000000e+00 0.0000000000000000e+00
0.0000000000000000e+00 1.9906707872294318e+00 1.9906707872294318e+00
1.9906707872294318e+00 1.9906707872294318e+00 0.0000000000000000e+00
1.9906707872294318e+00 0.0000000000000000e+00 1.9906707872294318e+00
