ATOMIC_SPECIES
Al 26.982 ./pp_orb/Al_ONCV_PBE-1.0.upf

NUMERICAL_ORBITAL
./pp_orb/Al_gga_9au_100Ry_4s4p1d.orb

LATTICE_CONSTANT
1.8897261246257702

LATTICE_VECTORS
4.046583885531347 0.0 0.0 
0.0 4.046583885531347 0.0 
0.0809316777106269 0.0 4.045774487806373 

ATOMIC_POSITIONS
Cartesian    # Cartesian(Unit is LATTICE_CONSTANT)
Al
0.0
4
0.000000000000 0.000000000000 0.000000000000 1 1 1
0.040465838856 2.023291942800 2.022887243938 1 1 1
2.063757781656 0.000000000000 2.022887243938 1 1 1
2.023291942800 2.023291942800 0.000000000000 1 1 1
