Al16 
1.0
2.8613669060994233e+00 5.3480730318009264e-34 -2.4906589729433501e-32 
-4.4313310928137517e-16 7.0088888868297738e+00 -3.7283494749369903e-17 
1.0000000000001855e-02 -2.3362962956099143e+00 2.6432175255788621e+01 
Al 
16 
Cartesian
   2.8702731561    2.6283333326   23.5411560872
   2.8708981561    0.2920370370   25.1931670407
   1.4399022030   -2.0442592586   24.3671615639
   1.4405272031    2.6283333326   26.0191725174
   2.8690231561    0.2920370370   20.2371341802
   2.8696481561    4.9646296282   21.8891451337
   1.4386522030    2.6283333326   21.0631396569
   1.4392772031    0.2920370370   22.7151506104
   2.8677731561    4.9646296282   16.9331122733
   2.8683981561    2.6283333326   18.5851232267
   1.4374022030    0.2920370370   17.7591177500
   1.4380272031    4.9646296282   19.4111287035
   2.8665231561    2.6283333326   13.6290903663
   2.8671481561    0.2920370370   15.2811013198
   1.4361522031    4.9646296282   14.4550958430
   1.4367772030    2.6283333326   16.1071067965
