Al16
1.0
   2.8613669060994233    0.0000000000000000    0.0000000000000002
  -0.0000000000000004    6.9816697980350453   -0.6170982572744840
   0.0000000000000000    0.0000000000000000   26.5352250628029331
Al
16
direct
   0.9999999999999999    0.6718750000066271    0.8906250000007953 Al
   0.9999999999999999    0.3593750000066270    0.9531250000007953 Al
   0.5000000000000002    0.0156250000034463    0.9218749999997349 Al
   0.5000000000000002    0.7031250000034462    0.9843749999997349 Al
   0.9999999999999998    0.2968750000066271    0.7656250000007953 Al
   0.9999999999999998    0.9843750000066271    0.8281250000007953 Al
   0.5000000000000001    0.6406250000034462    0.7968749999997349 Al
   0.5000000000000002    0.3281250000034462    0.8593749999997349 Al
   0.9999999999999997    0.9218750000066271    0.6406250000007954 Al
   0.9999999999999997    0.6093750000066270    0.7031250000007953 Al
   0.5000000000000000    0.2656250000034462    0.6718749999997349 Al
   0.5000000000000000    0.9531250000034460    0.7343749999997349 Al
   0.9999999999999997    0.5468750000066271    0.5156250000007954 Al
   0.9999999999999997    0.2343750000066271    0.5781250000007954 Al
   0.4999999999999999    0.8906250000034464    0.5468749999997349 Al
   0.5000000000000000    0.5781250000034462    0.6093749999997350 Al
