ATOMIC_SPECIES
Al 26.982 ./pp_orb/Al_ONCV_PBE-1.0.upf

NUMERICAL_ORBITAL
./pp_orb/Al_gga_9au_100Ry_4s4p1d.orb

LATTICE_CONSTANT
1.8897261246257702

LATTICE_VECTORS
2.8613669060994233 5.348073031800926e-34 -2.49065897294335e-32 
-4.4313310928137517e-16 7.008888886829774 -3.72834947493699e-17 
0.010000000000001855 -2.3362962956099143 26.43217525578862 

ATOMIC_POSITIONS
Cartesian    # Cartesian(Unit is LATTICE_CONSTANT)
Al
0.0
16
2.870273156099 2.628333332606 23.541156087208 1 1 1
2.870898156099 0.292037036996 25.193167040695 1 1 1
1.439902203050 -2.044259258634 24.367161563923 1 1 1
1.440527203050 2.628333332586 26.019172517410 1 1 1
2.869023156099 0.292037036996 20.237134180234 1 1 1
2.869648156099 4.964629628216 21.889145133721 1 1 1
1.438652203050 2.628333332586 21.063139656950 1 1 1
1.439277203050 0.292037036976 22.715150610436 1 1 1
2.867773156099 4.964629628216 16.933112273261 1 1 1
2.868398156099 2.628333332606 18.585123226747 1 1 1
1.437402203050 0.292037036976 17.759117749976 1 1 1
1.438027203050 4.964629628196 19.411128703463 1 1 1
2.866523156099 2.628333332606 13.629090366287 1 1 1
2.867148156099 0.292037036996 15.281101319774 1 1 1
1.436152203050 4.964629628196 14.455095843002 1 1 1
1.436777203050 2.628333332586 16.107106796489 1 1 1
