Automatic kpoint scheme
0
Monkhorst
24 24 24
