Al4 
1.0
4.0369359481000000e+00 0.0000000000000000e+00 0.0000000000000000e+00 
-8.0738719000000000e-02 4.0361284802000004e+00 0.0000000000000000e+00 
0.0000000000000000e+00 0.0000000000000000e+00 4.0369359481000000e+00 
Al 
4 
Cartesian
   0.0000000000    0.0000000000    0.0000000000
   1.9780986145    2.0180642401    0.0000000000
  -0.0403693595    2.0180642401    2.0184679741
   1.9377292551    4.0361284802    2.0184679741
