Al4 
1.0
3.4007205061999999e+00 0.0000000000000000e+00 0.0000000000000000e+00 
0.0000000000000000e+00 3.4007205061999999e+00 0.0000000000000000e+00 
-0.0000000000000000e+00 -0.0000000000000000e+00 3.4007205061999999e+00 
Al 
4 
Cartesian
   0.0000000000    0.0000000000    0.0000000000
   1.7003602531    0.0000000000    1.7003602531
   1.7003602531    1.7003602531    0.0000000000
   0.0000000000    1.7003602531    1.7003602531
