Al4 
1.0
3.4007205062033159e+00 0.0000000000000000e+00 0.0000000000000000e+00
1.2215913792737848e-18 3.4007205062033159e+00 0.0000000000000000e+00
-4.4005560036767653e-18 -6.7509300236183892e-18 3.4007205062033159e+00
Al 
4 
Cartesian
-0.0000000000000000e+00 0.0000000000000000e+00 0.0000000000000000e+00
-0.0000000000000000e+00 1.7003602530796398e+00 1.7003602530796398e+00
1.7003602530796398e+00 1.7003602530796398e+00 0.0000000000000000e+00
1.7003602530796398e+00 -0.0000000000000000e+00 1.7003602530796398e+00
