Al4 
1.0
3.9636478119000000e+00 0.0000000000000000e+00 0.0000000000000000e+00 
0.0000000000000000e+00 3.9636478119000000e+00 0.0000000000000000e+00 
-0.0000000000000000e+00 -0.0000000000000000e+00 3.9636478119000000e+00 
Al 
4 
Cartesian
   3.9636478119    1.9818239060    1.9818239060
   1.9818239060    1.9818239060    3.9636478119
   1.9818239060    3.9636478119    1.9818239060
   3.9636478119    3.9636478119    3.9636478119
