Al4 
1.0
3.9636478119440706e+00 0.0000000000000000e+00 0.0000000000000000e+00
1.4238035700716871e-18 3.9636478119440706e+00 0.0000000000000000e+00
-5.1289878552189228e-18 -7.8684234614083226e-18 3.9636478119440706e+00
Al 
4 
Cartesian
-0.0000000000000000e+00 0.0000000000000000e+00 0.0000000000000000e+00
-0.0000000000000000e+00 1.9818239059463725e+00 1.9818239059463725e+00
1.9818239059463725e+00 1.9818239059463725e+00 0.0000000000000000e+00
1.9818239059463725e+00 -0.0000000000000000e+00 1.9818239059463725e+00
